@relation 'dataset_pangoa_nosupervisado'

@attribute tipo_contribuyente {'Persona juridica','Persona natural'}
@attribute monto_impuesto numeric
@attribute monto_pagado numeric
@attribute deuda_acumulada numeric
@attribute anios_moroso numeric
@attribute frecuencia_pago {'Con retraso','Nunca paga'}
@attribute meses_retraso_promedio numeric
@attribute num_notificaciones numeric
@attribute respondio_notificacion {Si,No}
@attribute fraccionamiento {No,Si}

@data
'Persona juridica',42899.76,10734.94,0,0,'Con retraso',0,0,Si,No
'Persona natural',39844.46,0,10129.5,1,'Nunca paga',0,0,No,No
'Persona juridica',21250.32,5322.58,0,0,'Con retraso',0,0,Si,No
'Persona juridica',16932,0,4310.3,1,'Nunca paga',0,0,No,No
'Persona juridica',13366.3,0,3404.71,1,'Nunca paga',0,0,No,No
'Persona natural',11834.74,0,3015.73,1,'Nunca paga',0,0,No,No
'Persona natural',11472.78,0,2923.8,1,'Nunca paga',24,1,No,No
'Persona juridica',11025.76,0,2810.27,1,'Nunca paga',0,0,No,No
'Persona juridica',10679.89,0,2722.43,1,'Nunca paga',0,0,No,No
'Persona juridica',10609.67,2680.28,0,0,'Con retraso',0,0,Si,No
'Persona natural',10407.4,0,2653.22,1,'Nunca paga',24,1,No,No
'Persona natural',9423.41,2365.86,0,0,'Con retraso',0,1,Si,No
'Persona juridica',8861.7,2225.43,0,0,'Con retraso',0,0,Si,No
'Persona natural',8521.7,0,2174.3,1,'Nunca paga',0,1,No,No
'Persona natural',8424.27,0,2149.56,1,'Nunca paga',24,1,No,No
'Persona natural',8266.29,2090.76,0,0,'Con retraso',0,0,Si,No
'Persona natural',7963.2,0,2032.45,1,'Nunca paga',0,0,No,No
'Persona natural',7882.72,0,2012.01,1,'Nunca paga',24,1,No,No
'Persona natural',7615.01,0,1944.03,1,'Nunca paga',0,1,No,No
'Persona natural',7224.32,0,1844.8,1,'Nunca paga',24,1,No,No
'Persona natural',7193.53,0,1836.98,1,'Nunca paga',24,1,No,No
'Persona natural',7109.32,0,1815.59,1,'Nunca paga',24,1,No,No
'Persona natural',7073.24,0,1806.43,1,'Nunca paga',24,1,No,No
'Persona juridica',7053.25,1783.95,0,0,'Con retraso',0,0,Si,No
'Persona natural',6756.24,0,1725.92,1,'Nunca paga',24,1,No,No
'Persona natural',6721.84,0,1717.18,1,'Nunca paga',24,1,No,No
'Persona natural',6629.32,0,1693.68,1,'Nunca paga',24,1,No,No
'Persona juridica',6407.56,0,1637.36,1,'Nunca paga',0,0,No,No
'Persona juridica',6285.2,0,1606.28,1,'Nunca paga',0,0,No,No
'Persona natural',5975.6,1503.9,0,0,'Con retraso',0,1,Si,No
'Persona natural',5832.07,0,1491.2,1,'Nunca paga',0,0,No,No
'Persona natural',5809.94,0,1485.58,1,'Nunca paga',23.1,1,No,No
'Persona natural',5773.76,0,1476.39,1,'Nunca paga',23,1,No,No
'Persona natural',5658.99,0,1447.24,1,'Nunca paga',22.5,1,No,No
'Persona natural',5530.6,0,1414.63,1,'Nunca paga',0,0,No,No
'Persona natural',5259.19,1324.8,0,0,'Con retraso',0,1,Si,No
'Persona natural',5243.64,0,1341.75,1,'Nunca paga',20.8,1,No,No
'Persona natural',5154.7,1298.68,0,0,'Con retraso',0,1,Si,No
'Persona natural',5097.16,0,0,0,'Nunca paga',0,0,No,No
'Persona natural',5053.43,0,1293.45,1,'Nunca paga',0,1,No,No
'Persona natural',5012.12,0,1282.95,1,'Nunca paga',0,1,No,No
'Persona natural',5007.24,0,1281.71,1,'Nunca paga',0,0,No,No
'Persona juridica',5000.34,0,1279.97,1,'Nunca paga',0,0,No,No
'Persona natural',4924.4,0,1260.67,1,'Nunca paga',19.6,1,No,No
'Persona natural',4803.73,1210.94,0,0,'Con retraso',0,1,Si,No
'Persona natural',4713.27,0,1207.06,1,'Nunca paga',0,1,No,No
'Persona natural',4684.04,0,1199.63,1,'Nunca paga',0,1,No,No
'Persona natural',4667.49,1176.88,0,0,'Con retraso',0,1,Si,No
'Persona natural',4638,0,1187.94,1,'Nunca paga',0,0,No,No
'Persona natural',4551.41,0,1165.95,1,'Nunca paga',18.1,1,No,No
'Persona natural',4518.26,1139.57,0,0,'Con retraso',0,1,Si,No
'Persona natural',4503.7,0,0,0,'Nunca paga',0,0,No,No
'Persona juridica',4488.48,1132.12,0,0,'Con retraso',0,0,Si,No
'Persona natural',4466.72,0,1144.44,1,'Nunca paga',0,0,No,No
'Persona natural',4317.98,1089.5,0,0,'Con retraso',0,1,Si,No
'Persona natural',4306.38,0,1103.72,1,'Nunca paga',0,1,No,No
'Persona natural',4286.63,0,1098.7,1,'Nunca paga',17,1,No,No
'Persona juridica',4224.16,1082.64,0,0,'Con retraso',0,0,Si,No
'Persona natural',4195.52,0,1075.56,1,'Nunca paga',16.7,1,No,No
'Persona natural',4188.33,1098.5,0,0,'Con retraso',0,1,Si,No
'Persona natural',4097.46,0,1050.66,1,'Nunca paga',0,1,No,No
'Persona juridica',4058.37,0,1040.73,1,'Nunca paga',0,0,No,No
'Persona natural',4029.13,1017.29,0,0,'Con retraso',0,1,Si,No
'Persona natural',4021.65,1015.42,0,0,'Con retraso',0,1,Si,No
'Persona natural',4005.43,1023.38,0,0,'Con retraso',0,1,Si,No
'Persona natural',3982.95,0,1021.57,1,'Nunca paga',15.8,1,No,No
'Persona juridica',3939.12,0,1010.44,1,'Nunca paga',0,0,No,No
'Persona natural',3903.53,0,1001.41,1,'Nunca paga',15.5,1,No,No
'Persona natural',3903.26,0,1001.34,1,'Nunca paga',15.5,1,No,No
'Persona juridica',3859.34,0,990.18,1,'Nunca paga',0,0,No,No
'Persona natural',3855.41,973.86,0,0,'Con retraso',0,1,Si,No
'Persona juridica',3827.38,0,982.06,1,'Nunca paga',0,0,No,No
'Persona natural',3780.82,0,970.24,1,'Nunca paga',15,1,No,No
'Persona natural',3743.61,0,960.79,1,'Nunca paga',14.9,1,No,No
'Persona natural',3659.97,925,0,0,'Con retraso',0,1,Si,No
'Persona natural',3642.28,0,935.05,1,'Nunca paga',14.5,1,No,No
'Persona juridica',3617.14,914.29,0,0,'Con retraso',0,0,Si,No
'Persona natural',3592.21,0,922.34,1,'Nunca paga',14.3,1,No,No
'Persona natural',3556.74,0,913.33,1,'Nunca paga',14.1,1,No,No
'Persona natural',3525.69,0,905.44,1,'Nunca paga',14,1,No,No
'Persona natural',3484.67,0,895.02,1,'Nunca paga',0,1,No,No
'Persona natural',3484.66,0,895.02,1,'Nunca paga',0,1,No,No
'Persona natural',3326.08,0,854.74,1,'Nunca paga',13.2,1,No,No
'Persona natural',3318.83,0,852.9,1,'Nunca paga',13.2,1,No,No
'Persona natural',3318.58,839.65,0,0,'Con retraso',0,1,Si,No
'Persona natural',3305.87,0,849.61,1,'Nunca paga',13.1,1,No,No
'Persona natural',3251.63,0,835.84,1,'Nunca paga',0,1,No,No
'Persona natural',3154.43,0,811.15,1,'Nunca paga',0,1,No,No
'Persona natural',3056.75,0,786.34,1,'Nunca paga',0,0,No,No
'Persona natural',3032.26,768.07,0,0,'Con retraso',0,1,Si,No
'Persona natural',3014.44,763.61,0,0,'Con retraso',0,1,Si,No
'Persona natural',2961.53,740.39,0,0,'Con retraso',0,0,Si,No
'Persona natural',2929.66,0,754.07,1,'Nunca paga',11.6,1,No,No
'Persona natural',2916.14,0,750.63,1,'Nunca paga',11.6,1,No,No
'Persona natural',2886.64,0,743.13,1,'Nunca paga',0,1,No,No
'Persona natural',2807.38,0,723.01,1,'Nunca paga',11.2,1,No,No
'Persona natural',2797.23,709.31,0,0,'Con retraso',0,1,Si,No
'Persona natural',2791.06,0,718.86,1,'Nunca paga',11.1,1,No,No
'Persona natural',2777.97,0,715.54,1,'Nunca paga',0,1,No,No
'Persona natural',2745.16,0,0,0,'Nunca paga',10.9,0,No,No
'Persona natural',2664.06,0,686.61,1,'Nunca paga',10.6,1,No,No
'Persona natural',2650.11,672.53,0,0,'Con retraso',0,1,Si,No
'Persona natural',2578.32,0,664.83,1,'Nunca paga',10.2,1,No,No
'Persona natural',2575.1,0,664.02,1,'Nunca paga',10.2,1,No,No
'Persona natural',2533.65,0,653.49,1,'Nunca paga',10.1,1,No,No
'Persona natural',2533.06,0,0,0,'Nunca paga',10.1,0,No,No
'Persona natural',2469.96,0,637.31,1,'Nunca paga',9.8,1,No,No
'Persona natural',2445.77,0,631.17,1,'Nunca paga',0,1,No,No
'Persona natural',2435.27,0,628.5,1,'Nunca paga',0,1,No,No
'Persona natural',2433.33,0,628.01,1,'Nunca paga',9.7,1,No,No
'Persona natural',2405.28,0,620.88,1,'Nunca paga',9.6,1,No,No
'Persona natural',2360.17,0,609.43,1,'Nunca paga',9.4,1,No,No
'Persona natural',2338.67,0,603.97,1,'Nunca paga',0,1,No,No
'Persona natural',2313.84,0,597.66,1,'Nunca paga',0,1,No,No
'Persona natural',2227.14,0,0,0,'Nunca paga',8.8,0,No,No
'Persona natural',2201.26,0,569.07,1,'Nunca paga',0,1,No,No
'Persona natural',2173.03,0,561.9,1,'Nunca paga',0,1,No,No
'Persona natural',2165.98,551.5,0,0,'Con retraso',0,1,Si,No
'Persona natural',2123.89,0,549.42,1,'Nunca paga',8.4,1,No,No
'Persona natural',2118.9,0,548.15,1,'Nunca paga',8.4,1,No,No
'Persona natural',2116.87,0,547.63,1,'Nunca paga',8.4,1,No,No
'Persona natural',2109.89,0,0,0,'Nunca paga',0,0,No,No
'Persona natural',2097.5,0,542.72,1,'Nunca paga',0,1,No,No
'Persona juridica',2089.46,0,540.68,1,'Nunca paga',0,0,No,No
'Persona natural',2079.35,0,538.11,1,'Nunca paga',8.3,1,No,No
'Persona natural',2078.04,0,0,0,'Nunca paga',8.3,0,No,No
'Persona natural',2062.42,0,533.81,1,'Nunca paga',8.2,1,No,No
'Persona natural',2060.41,0,533.3,1,'Nunca paga',0,1,No,No
'Persona natural',2044.65,0,529.3,1,'Nunca paga',8.1,1,No,No
'Persona natural',2021.87,0,523.51,1,'Nunca paga',0,1,No,No
'Persona natural',2020.09,0,523.06,1,'Nunca paga',8,1,No,No
'Persona natural',2019.37,0,522.88,1,'Nunca paga',8,1,No,No
'Persona natural',2008.98,0,520.24,1,'Nunca paga',8,1,No,No
'Persona natural',2003.97,0,518.97,1,'Nunca paga',8,1,No,No
'Persona natural',1966.65,0,509.49,1,'Nunca paga',0,0,No,No
'Persona natural',1966.02,0,509.33,1,'Nunca paga',7.8,1,No,No
'Persona natural',1957.12,0,507.06,1,'Nunca paga',7.8,1,No,No
'Persona natural',1956.48,0,506.9,1,'Nunca paga',7.8,1,No,No
'Persona natural',1941.52,0,503.1,1,'Nunca paga',7.7,1,No,No
'Persona juridica',1940.57,0,502.86,1,'Nunca paga',0,0,No,No
'Persona natural',1935.64,0,501.6,1,'Nunca paga',7.7,1,No,No
'Persona natural',1918.87,0,497.35,1,'Nunca paga',7.6,1,No,No
'Persona natural',1915.25,0,496.43,1,'Nunca paga',7.6,1,No,No
'Persona natural',1906.49,0,494.21,1,'Nunca paga',0,1,No,No
'Persona natural',1892.59,483.15,0,0,'Con retraso',0,1,Si,No
'Persona natural',1878.63,0,487.13,1,'Nunca paga',7.5,1,No,No
'Persona natural',1837.57,469.4,0,0,'Con retraso',0,1,Si,No
'Persona natural',1832.59,469.66,0,0,'Con retraso',0,1,Si,No
'Persona natural',1818.48,0,471.85,1,'Nunca paga',7.2,1,No,No
'Persona juridica',1811.73,462.94,0,0,'Con retraso',0,0,Si,No
'Persona natural',1785.89,0,463.58,1,'Nunca paga',0,1,No,No
'Persona natural',1760.81,0,457.21,1,'Nunca paga',7,1,No,No
'Persona natural',1760.75,450.19,0,0,'Con retraso',0,1,Si,No
'Persona natural',1757.57,0,456.39,1,'Nunca paga',7,1,No,No
'Persona natural',1756.76,0,456.17,1,'Nunca paga',7,1,No,No
'Persona natural',1755.65,0,455.9,1,'Nunca paga',0,1,No,No
'Persona natural',1748.42,0,454.06,1,'Nunca paga',0,0,No,No
'Persona natural',1743.23,0,0,0,'Nunca paga',6.9,0,No,No
'Persona natural',1734.7,0,450.58,1,'Nunca paga',6.9,1,No,No
'Persona natural',1711.64,0,444.71,1,'Nunca paga',0,1,No,No
'Persona juridica',1696.47,0,440.86,1,'Nunca paga',0,0,No,No
'Persona natural',1684.68,0,437.87,1,'Nunca paga',6.7,1,No,No
'Persona natural',1672.13,0,434.69,1,'Nunca paga',6.6,1,No,No
'Persona natural',1671.25,0,434.46,1,'Nunca paga',6.6,1,No,No
'Persona natural',1662.55,0,432.25,1,'Nunca paga',6.6,1,No,No
'Persona natural',1652.53,0,429.71,1,'Nunca paga',0,1,No,No
'Persona natural',1647.39,0,428.4,1,'Nunca paga',6.6,1,No,No
'Persona natural',1642.6,0,427.18,1,'Nunca paga',0,1,No,No
'Persona natural',1636.27,0,425.57,1,'Nunca paga',6.5,1,No,No
'Persona natural',1635.96,0,425.49,1,'Nunca paga',0,1,No,No
'Persona natural',1630.18,0,424.03,1,'Nunca paga',0,1,No,No
'Persona natural',1623.59,0,422.35,1,'Nunca paga',6.4,1,No,No
'Persona natural',1615.49,0,0,0,'Nunca paga',6.4,0,No,No
'Persona natural',1605.66,0,417.8,1,'Nunca paga',6.4,1,No,No
'Persona natural',1596.11,0,415.37,1,'Nunca paga',6.3,1,No,No
'Persona natural',1590.93,407.74,0,0,'Con retraso',0,1,Si,No
'Persona natural',1589.3,0,413.65,1,'Nunca paga',0,1,No,No
'Persona natural',1572.51,403.13,0,0,'Con retraso',0,1,Si,No
'Persona natural',1571.34,0,409.09,1,'Nunca paga',0,1,No,No
'Persona natural',1568.75,0,408.43,1,'Nunca paga',0,1,No,No
'Persona natural',1562.34,0,406.8,1,'Nunca paga',6.2,1,No,No
'Persona natural',1546.7,0,402.83,1,'Nunca paga',6.2,1,No,No
'Persona natural',1543.6,395.9,0,0,'Con retraso',0,1,Si,No
'Persona natural',1540.01,0,401.13,1,'Nunca paga',6.1,1,No,No
'Persona natural',1538.11,0,400.64,1,'Nunca paga',6.1,1,No,No
'Persona natural',1532.17,393.05,0,0,'Con retraso',0,1,Si,No
'Persona natural',1528.4,392.1,0,0,'Con retraso',0,1,Si,No
'Persona natural',1515.84,388.96,0,0,'Con retraso',0,1,Si,No
'Persona natural',1514.95,388.74,0,0,'Con retraso',0,1,Si,No
'Persona juridica',1513.95,0,394.51,1,'Nunca paga',0,0,No,No
'Persona natural',1505.37,0,392.33,1,'Nunca paga',0,1,No,No
'Persona natural',1500.1,0,390.99,1,'Nunca paga',6,1,No,No
'Persona natural',1498.67,0,390.63,1,'Nunca paga',0,0,No,No
'Persona natural',1483.42,0,386.76,1,'Nunca paga',5.9,1,No,No
'Persona natural',1468.55,0,382.98,1,'Nunca paga',5.8,1,No,No
'Persona natural',1467.93,0,382.83,1,'Nunca paga',5.8,1,No,No
'Persona natural',1461.68,0,381.23,1,'Nunca paga',5.8,1,No,No
'Persona natural',1458.37,0,380.4,1,'Nunca paga',5.8,1,No,No
'Persona natural',1440.46,0,375.85,1,'Nunca paga',5.7,1,No,No
'Persona natural',1433.47,0,374.07,1,'Nunca paga',5.7,1,No,No
'Persona natural',1427.39,0,372.52,1,'Nunca paga',5.7,1,No,No
'Persona natural',1425.94,366.49,0,0,'Con retraso',0,1,Si,No
'Persona natural',1417.01,0,369.89,1,'Nunca paga',5.6,1,No,No
'Persona natural',1409.91,0,368.08,1,'Nunca paga',5.6,1,No,No
'Persona natural',1405.11,0,366.87,1,'Nunca paga',5.6,1,No,No
'Persona natural',1397.86,0,365.03,1,'Nunca paga',5.6,1,No,No
'Persona natural',1394.42,0,364.15,1,'Nunca paga',5.5,1,No,No
'Persona natural',1388.06,0,362.54,1,'Nunca paga',0,1,No,No
'Persona natural',1383.81,0,361.46,1,'Nunca paga',0,1,No,No
'Persona natural',1383.09,0,361.28,1,'Nunca paga',5.5,1,No,No
'Persona natural',1380.9,0,360.72,1,'Nunca paga',5.5,1,No,No
'Persona natural',1378.84,0,360.19,1,'Nunca paga',0,1,No,No
'Persona natural',1372.83,0,358.67,1,'Nunca paga',5.5,1,No,No
'Persona natural',1372.04,0,358.46,1,'Nunca paga',5.4,1,No,No
'Persona natural',1364.94,0,356.67,1,'Nunca paga',5.4,1,No,No
'Persona juridica',1356.16,0,354.43,1,'Nunca paga',0,0,No,No
'Persona juridica',1354.35,0,353.97,1,'Nunca paga',0,0,No,No
'Persona natural',1336.53,0,349.45,1,'Nunca paga',5.3,1,No,No
'Persona natural',1329.1,0,347.56,1,'Nunca paga',5.3,1,No,No
'Persona natural',1328.32,0,347.36,1,'Nunca paga',0,1,No,No
'Persona natural',1326.89,0,0,0,'Nunca paga',0,0,No,No
'Persona natural',1325.96,0,0,0,'Nunca paga',0,0,No,No
'Persona natural',1319.59,0,345.15,1,'Nunca paga',0,1,No,No
'Persona natural',1319.1,0,345.02,1,'Nunca paga',5.2,1,No,No
'Persona natural',1317.77,0,344.69,1,'Nunca paga',5.2,1,No,No
'Persona natural',1313.72,338.43,0,0,'Con retraso',0,1,Si,No
'Persona natural',1308.37,0,342.3,1,'Nunca paga',5.2,1,No,No
'Persona natural',1307.93,0,342.19,1,'Nunca paga',0,0,No,No
'Persona natural',1297.92,0,339.64,1,'Nunca paga',5.2,1,No,No
'Persona natural',1290.59,0,337.78,1,'Nunca paga',5.1,1,No,No
'Persona natural',1283.81,0,336.06,1,'Nunca paga',5.1,1,No,No
'Persona natural',1282.32,0,335.68,1,'Nunca paga',5.1,1,No,No
'Persona natural',1280.59,0,335.24,1,'Nunca paga',0,1,No,No
'Persona natural',1274.52,0,333.7,1,'Nunca paga',5.1,1,No,No
'Persona natural',1271.68,0,0,0,'Nunca paga',0,0,No,No
'Persona natural',1269.48,0,332.42,1,'Nunca paga',5,1,No,No
'Persona natural',1265.72,0,331.46,1,'Nunca paga',5,1,No,No
'Persona natural',1264.59,0,331.18,1,'Nunca paga',5,1,No,No
'Persona natural',1260.27,0,330.08,1,'Nunca paga',0,1,No,No
'Persona natural',1249.05,0,327.24,1,'Nunca paga',5,1,No,No
'Persona natural',1245.12,0,326.23,1,'Nunca paga',5,1,No,No
'Persona juridica',1233.78,0,313.35,1,'Nunca paga',0,0,No,No
'Persona natural',1230.42,0,322.5,1,'Nunca paga',4.9,1,No,No
'Persona natural',1214.28,0,318.4,1,'Nunca paga',4.8,1,No,No
'Persona natural',1212.83,0,318.03,1,'Nunca paga',0,1,No,No
'Persona natural',1211.92,0,317.8,1,'Nunca paga',4.8,1,No,No
'Persona natural',1194.81,0,313.46,1,'Nunca paga',0,1,No,No
'Persona natural',1193.93,0,313.24,1,'Nunca paga',4.8,1,No,No
'Persona natural',1193.7,0,313.18,1,'Nunca paga',0,1,No,No
'Persona natural',1187.05,0,311.49,1,'Nunca paga',0,1,No,No
'Persona natural',1184.33,0,310.8,1,'Nunca paga',4.7,1,No,No
'Persona natural',1181.87,0,310.17,1,'Nunca paga',4.7,1,No,No
'Persona natural',1178.68,0,309.36,1,'Nunca paga',0,1,No,No
'Persona natural',1173.98,0,308.17,1,'Nunca paga',0,1,No,No
'Persona natural',1170.8,0,307.35,1,'Nunca paga',0,1,No,No
'Persona natural',1166.47,301.62,0,0,'Con retraso',0,1,Si,No
'Persona natural',1165.41,0,305.99,1,'Nunca paga',0,1,No,No
'Persona natural',1162.5,0,305.25,1,'Nunca paga',4.6,1,No,No
'Persona natural',1159.9,0,304.59,1,'Nunca paga',4.6,1,No,No
'Persona natural',1155.95,0,303.58,1,'Nunca paga',0,1,No,No
'Persona natural',1153.15,0,302.87,1,'Nunca paga',0,1,No,No
'Persona natural',1152.14,0,302.62,1,'Nunca paga',4.6,1,No,No
'Persona natural',1150.17,0,302.12,1,'Nunca paga',4.6,1,No,No
'Persona natural',1148.59,0,301.72,1,'Nunca paga',4.6,1,No,No
'Persona natural',1147.89,296.98,0,0,'Con retraso',0,1,Si,No
'Persona natural',1147.52,0,301.44,1,'Nunca paga',0,1,No,No
'Persona natural',1147.39,0,301.41,1,'Nunca paga',4.6,1,No,No
'Persona natural',1141.52,0,299.92,1,'Nunca paga',0,0,No,No
'Persona natural',1129.71,0,296.92,1,'Nunca paga',0,0,No,No
'Persona natural',1128.42,0,296.6,1,'Nunca paga',4.5,1,No,No
'Persona natural',1124.71,0,295.65,1,'Nunca paga',4.5,1,No,No
'Persona natural',1124.37,0,295.57,1,'Nunca paga',0,1,No,No
'Persona juridica',1119.11,0,294.23,1,'Nunca paga',0,0,No,No
'Persona natural',1114.75,0,293.12,1,'Nunca paga',4.4,1,No,No
'Persona natural',1113.52,0,292.81,1,'Nunca paga',4.4,1,No,No
'Persona natural',1106.84,0,291.11,1,'Nunca paga',4.4,1,No,No
'Persona natural',1103.61,0,290.3,1,'Nunca paga',4.4,1,No,No
'Persona natural',1102.33,0,289.97,1,'Nunca paga',4.4,1,No,No
'Persona natural',1100.87,0,289.6,1,'Nunca paga',4.4,1,No,No
'Persona natural',1099.34,0,0,0,'Nunca paga',4.4,0,No,No
'Persona natural',1094.76,0,288.04,1,'Nunca paga',0,1,No,No
'Persona natural',1092.62,0,287.5,1,'Nunca paga',4.3,1,No,No
'Persona natural',1092.36,0,287.43,1,'Nunca paga',0,1,No,No
'Persona natural',1091.58,0,0,0,'Nunca paga',4.3,0,No,No
'Persona natural',1090.4,0,0,0,'Nunca paga',0,0,No,No
'Persona natural',1087.62,281.91,0,0,'Con retraso',0,1,Si,No
'Persona natural',1085.48,281.37,0,0,'Con retraso',0,1,Si,No
'Persona natural',1084.95,0,285.55,1,'Nunca paga',0,1,No,No
'Persona natural',1082.95,0,285.04,1,'Nunca paga',4.3,1,No,No
'Persona natural',1079.54,0,0,0,'Nunca paga',4.3,0,No,No
'Persona natural',1074.53,0,282.91,1,'Nunca paga',4.3,1,No,No
'Persona natural',1073.45,0,282.64,1,'Nunca paga',4.3,1,No,No
'Persona natural',1072.57,0,0,0,'Nunca paga',4.3,0,No,No
'Persona natural',1069.33,0,281.59,1,'Nunca paga',4.2,1,No,No
'Persona natural',1066.08,0,280.76,1,'Nunca paga',4.2,1,No,No
'Persona natural',1062.68,0,279.89,1,'Nunca paga',4.2,1,No,No
'Persona natural',1062.22,0,279.78,1,'Nunca paga',0,1,No,No
'Persona natural',1060.64,275.16,0,0,'Con retraso',0,1,Si,No
'Persona natural',1060.31,0,0,0,'Nunca paga',0,0,No,No
'Persona natural',1055.41,273.86,0,0,'Con retraso',0,1,Si,No
'Persona natural',1051.16,0,276.97,1,'Nunca paga',0,0,No,No
'Persona natural',1050.75,0,276.87,1,'Nunca paga',4.2,1,No,No
'Persona natural',1050.37,0,276.78,1,'Nunca paga',4.2,1,No,No
'Persona natural',1046.08,0,275.68,1,'Nunca paga',4.2,1,No,No
'Persona natural',1043.14,0,274.94,1,'Nunca paga',4.2,1,No,No
'Persona natural',1037.5,0,273.5,1,'Nunca paga',0,1,No,No
'Persona natural',1034.25,268.57,0,0,'Con retraso',0,1,Si,No
'Persona natural',1034.16,268.54,0,0,'Con retraso',0,1,Si,No
'Persona natural',1033.78,268.71,0,0,'Con retraso',0,1,Si,No
'Persona natural',1033.17,0,0,0,'Nunca paga',0,0,No,No
'Persona natural',1030.22,267.56,0,0,'Con retraso',0,1,Si,No
'Persona natural',1024.72,0,270.25,1,'Nunca paga',4.1,1,No,No
'Persona natural',1024.18,0,0,0,'Nunca paga',4.1,0,No,No
'Persona natural',1024.12,266.03,0,0,'Con retraso',0,1,Si,No
'Persona natural',1018.66,0,268.72,1,'Nunca paga',4,1,No,No
'Persona natural',1017.13,0,268.33,1,'Nunca paga',4,1,No,No
'Persona natural',1011.14,0,266.81,1,'Nunca paga',4,1,No,No
'Persona natural',1011.05,0,266.79,1,'Nunca paga',4,1,No,No
'Persona natural',1009.38,0,266.36,1,'Nunca paga',4,1,No,No
'Persona natural',1005.93,0,265.49,1,'Nunca paga',0,0,No,No
'Persona natural',1004.75,264.05,0,0,'Con retraso',0,1,Si,No
'Persona natural',1004.74,0,265.18,1,'Nunca paga',4,1,No,No
'Persona natural',999.59,0,263.87,1,'Nunca paga',4,1,No,No
'Persona natural',993.82,0,262.41,1,'Nunca paga',4,1,No,No
'Persona natural',993.63,258.41,0,0,'Con retraso',0,1,Si,No
'Persona natural',993.42,0,262.31,1,'Nunca paga',4,1,No,No
'Persona natural',993.27,0,262.27,1,'Nunca paga',4,1,No,No
'Persona natural',992.82,258.21,0,0,'Con retraso',0,1,Si,No
'Persona natural',991.59,0,261.84,1,'Nunca paga',0,1,No,No
'Persona natural',986.73,0,260.61,1,'Nunca paga',3.9,1,No,No
'Persona natural',986.16,0,260.46,1,'Nunca paga',3.9,1,No,No
'Persona natural',984.03,0,259.92,1,'Nunca paga',3.9,1,No,No
'Persona natural',979.16,0,258.68,1,'Nunca paga',0,1,No,No
'Persona natural',966.61,0,255.5,1,'Nunca paga',0,0,No,No
'Persona natural',964.61,0,254.99,1,'Nunca paga',3.8,1,No,No
'Persona natural',963.12,0,254.61,1,'Nunca paga',3.8,1,No,No
'Persona natural',961.08,0,254.09,1,'Nunca paga',3.8,1,No,No
'Persona natural',956.98,0,253.05,1,'Nunca paga',3.8,1,No,No
'Persona natural',954.76,0,0,0,'Nunca paga',3.8,0,No,No
'Persona natural',949.36,0,251.11,1,'Nunca paga',3.8,1,No,No
'Persona natural',947.93,0,250.76,1,'Nunca paga',3.8,1,No,No
'Persona natural',944.85,0,249.98,1,'Nunca paga',3.8,1,No,No
'Persona natural',943.72,0,249.68,1,'Nunca paga',3.8,1,No,No
'Persona natural',940.66,245.17,0,0,'Con retraso',0,1,Si,No
'Persona natural',940.42,0,0,0,'Nunca paga',0,0,No,No
'Persona natural',940.31,0,248.82,1,'Nunca paga',3.7,1,No,No
'Persona natural',938.63,0,248.39,1,'Nunca paga',3.7,1,No,No
'Persona natural',938.57,0,248.38,1,'Nunca paga',0,1,No,No
'Persona natural',937.29,0,248.06,1,'Nunca paga',0,1,No,No
'Persona natural',936.71,0,247.9,1,'Nunca paga',0,1,No,No
'Persona natural',935.49,0,0,0,'Nunca paga',3.7,0,No,No
'Persona natural',934.49,0,247.34,1,'Nunca paga',3.7,1,No,No
'Persona natural',932.21,0,246.77,1,'Nunca paga',3.7,1,No,No
'Persona natural',930.66,0,246.37,1,'Nunca paga',3.7,1,No,No
'Persona natural',919.47,0,243.52,1,'Nunca paga',0,1,No,No
'Persona natural',918.92,0,243.38,1,'Nunca paga',3.6,1,No,No
'Persona natural',916.06,0,242.66,1,'Nunca paga',0,0,No,No
'Persona natural',913.42,0,241.99,1,'Nunca paga',3.6,1,No,No
'Persona natural',913.34,0,241.97,1,'Nunca paga',3.6,1,No,No
'Persona natural',910.34,0,241.21,1,'Nunca paga',3.6,1,No,No
'Persona natural',902.89,235.73,0,0,'Con retraso',0,1,Si,No
'Persona juridica',900.27,0,238.65,1,'Nunca paga',0,0,No,No
'Persona natural',890.68,0,236.21,1,'Nunca paga',3.5,1,No,No
'Persona natural',889.66,0,235.96,1,'Nunca paga',0,1,No,No
'Persona natural',889.56,0,235.93,1,'Nunca paga',0,0,No,No
'Persona natural',887.81,0,235.49,1,'Nunca paga',3.5,1,No,No
'Persona natural',883.36,0,234.35,1,'Nunca paga',3.5,1,No,No
'Persona natural',882.93,0,234.25,1,'Nunca paga',3.5,1,No,No
'Persona natural',878.62,0,233.15,1,'Nunca paga',3.5,1,No,No
'Persona natural',876.83,0,232.7,1,'Nunca paga',0,1,No,No
'Persona natural',876.32,0,232.56,1,'Nunca paga',0,1,No,No
'Persona natural',876.15,0,232.52,1,'Nunca paga',3.5,1,No,No
'Persona natural',875.37,0,232.33,1,'Nunca paga',3.5,1,No,No
'Persona natural',874.22,0,232.04,1,'Nunca paga',0,1,No,No
'Persona natural',873.23,0,231.78,1,'Nunca paga',3.5,1,No,No
'Persona natural',872.82,0,231.68,1,'Nunca paga',3.5,1,No,No
'Persona natural',870,0,230.96,1,'Nunca paga',3.5,1,No,No
'Persona natural',868.93,0,230.69,1,'Nunca paga',3.4,1,No,No
'Persona natural',867.87,0,230.42,1,'Nunca paga',3.4,1,No,No
'Persona natural',866.79,226.7,0,0,'Con retraso',0,1,Si,No
'Persona natural',866.39,0,230.04,1,'Nunca paga',0,1,No,No
'Persona natural',864.66,0,229.61,1,'Nunca paga',3.4,1,No,No
'Persona natural',864.56,0,229.58,1,'Nunca paga',3.4,1,No,No
'Persona natural',862.66,0,229.1,1,'Nunca paga',3.4,1,No,No
'Persona natural',860.5,0,228.55,1,'Nunca paga',0,1,No,No
'Persona natural',860.17,0,228.47,1,'Nunca paga',0,1,No,No
'Persona natural',858.63,0,228.07,1,'Nunca paga',0,0,No,No
'Persona natural',858.32,224.58,0,0,'Con retraso',0,1,Si,No
'Persona natural',856.76,0,227.6,1,'Nunca paga',3.4,1,No,No
'Persona natural',855.07,0,227.17,1,'Nunca paga',3.4,1,No,No
'Persona natural',847.44,0,225.23,1,'Nunca paga',3.4,1,No,No
'Persona natural',845.51,0,224.74,1,'Nunca paga',3.4,1,No,No
'Persona natural',843.76,0,224.29,1,'Nunca paga',3.4,1,No,No
'Persona natural',842.8,0,224.05,1,'Nunca paga',3.4,1,No,No
'Persona natural',841.45,0,223.71,1,'Nunca paga',3.3,1,No,No
'Persona natural',841.2,0,223.64,1,'Nunca paga',3.3,1,No,No
'Persona natural',840.17,220.05,0,0,'Con retraso',0,1,Si,No
'Persona natural',834.93,0,222.06,1,'Nunca paga',3.3,1,No,No
'Persona natural',834.36,0,221.91,1,'Nunca paga',3.3,1,No,No
'Persona juridica',833.64,0,221.72,1,'Nunca paga',0,0,No,No
'Persona natural',832.14,0,221.35,1,'Nunca paga',3.3,1,No,No
'Persona natural',828.8,0,220.49,1,'Nunca paga',3.3,1,No,No
'Persona natural',825.07,0,219.55,1,'Nunca paga',3.3,1,No,No
'Persona natural',823.83,0,219.23,1,'Nunca paga',3.3,1,No,No
'Persona natural',822.27,0,218.84,1,'Nunca paga',3.3,1,No,No
'Persona natural',821.25,0,218.58,1,'Nunca paga',0,1,No,No
'Persona natural',818.67,0,217.92,1,'Nunca paga',3.2,1,No,No
'Persona natural',815.04,0,217,1,'Nunca paga',0,1,No,No
'Persona natural',814.6,0,216.89,1,'Nunca paga',3.2,1,No,No
'Persona natural',813.71,213.43,0,0,'Con retraso',0,1,Si,No
'Persona natural',812.94,0,0,0,'Nunca paga',0,0,No,No
'Persona natural',811.89,0,216.21,1,'Nunca paga',3.2,1,No,No
'Persona natural',811.37,0,216.08,1,'Nunca paga',3.2,1,No,No
'Persona natural',810.67,0,215.89,1,'Nunca paga',3.2,1,No,No
'Persona natural',809.19,0,215.52,1,'Nunca paga',3.2,1,No,No
'Persona natural',807.25,0,215.03,1,'Nunca paga',0,1,No,No
'Persona natural',806.68,211.67,0,0,'Con retraso',0,1,Si,No
'Persona natural',805.05,0,214.47,1,'Nunca paga',3.2,1,No,No
'Persona natural',803.98,0,214.2,1,'Nunca paga',0,1,No,No
'Persona natural',801.82,0,213.65,1,'Nunca paga',3.2,1,No,No
'Persona natural',797.99,0,212.67,1,'Nunca paga',3.2,1,No,No
'Persona natural',796.17,0,212.21,1,'Nunca paga',3.2,1,No,No
'Persona natural',796.13,0,212.2,1,'Nunca paga',3.2,1,No,No
'Persona natural',787.02,0,209.89,1,'Nunca paga',0,1,No,No
'Persona natural',784.3,0,209.2,1,'Nunca paga',3.1,1,No,No
'Persona natural',780.19,205.05,0,0,'Con retraso',0,1,Si,No
'Persona natural',776.82,0,207.3,1,'Nunca paga',3.1,1,No,No
'Persona natural',772.01,0,206.08,1,'Nunca paga',3.1,1,No,No
'Persona natural',771.02,0,205.82,1,'Nunca paga',3.1,1,No,No
'Persona natural',767.56,0,204.94,1,'Nunca paga',0,0,No,No
'Persona natural',766.24,0,204.61,1,'Nunca paga',3,1,No,No
'Persona juridica',764.7,0,204.22,1,'Nunca paga',0,0,No,No
'Persona natural',764.24,0,204.1,1,'Nunca paga',3,1,No,No
'Persona natural',762.46,0,203.65,1,'Nunca paga',3,1,No,No
'Persona natural',761.62,0,203.44,1,'Nunca paga',0,1,No,No
'Persona natural',761.4,0,203.38,1,'Nunca paga',3,1,No,No
'Persona natural',759.57,0,202.92,1,'Nunca paga',3,1,No,No
'Persona natural',759.27,0,202.84,1,'Nunca paga',3,1,No,No
'Persona natural',758.36,0,202.6,1,'Nunca paga',3,1,No,No
'Persona natural',757.21,0,202.32,1,'Nunca paga',3,1,No,No
'Persona natural',753.94,0,201.49,1,'Nunca paga',3,1,No,No
'Persona natural',751.92,0,200.97,1,'Nunca paga',3,1,No,No
'Persona natural',750.48,0,200.6,1,'Nunca paga',3,1,No,No
'Persona natural',750.4,0,200.58,1,'Nunca paga',3,1,No,No
'Persona natural',748.05,0,199.99,1,'Nunca paga',3,1,No,No
'Persona natural',745.98,0,199.47,1,'Nunca paga',0,0,No,No
'Persona natural',745.29,0,199.29,1,'Nunca paga',3,1,No,No
'Persona natural',744.71,0,199.14,1,'Nunca paga',3,1,No,No
'Persona natural',743.43,0,198.82,1,'Nunca paga',3,1,No,No
'Persona natural',742.93,0,198.69,1,'Nunca paga',3,1,No,No
'Persona natural',741.83,0,198.41,1,'Nunca paga',3,1,No,No
'Persona natural',739.78,0,197.89,1,'Nunca paga',2.9,1,No,No
'Persona natural',739.23,0,197.75,1,'Nunca paga',0,1,No,No
'Persona natural',739.16,194.79,0,0,'Con retraso',0,1,Si,No
'Persona natural',737.45,0,197.3,1,'Nunca paga',2.9,1,No,No
'Persona natural',734.69,0,196.6,1,'Nunca paga',2.9,1,No,No
'Persona natural',733.95,0,196.41,1,'Nunca paga',2.9,1,No,No
'Persona natural',733.34,0,196.26,1,'Nunca paga',0,1,No,No
'Persona natural',732.96,0,196.15,1,'Nunca paga',2.9,1,No,No
'Persona natural',729,0,195.15,1,'Nunca paga',2.9,1,No,No
'Persona natural',728.92,0,195.13,1,'Nunca paga',0,1,No,No
'Persona natural',728.25,0,194.96,1,'Nunca paga',2.9,1,No,No
'Persona natural',726.22,0,194.45,1,'Nunca paga',0,1,No,No
'Persona natural',723.36,0,193.72,1,'Nunca paga',0,0,No,No
'Persona natural',718.31,0,192.44,1,'Nunca paga',0,1,No,No
'Persona natural',716.76,0,192.04,1,'Nunca paga',2.8,1,No,No
'Persona natural',713.85,0,191.31,1,'Nunca paga',0,1,No,No
'Persona natural',713.59,0,191.24,1,'Nunca paga',2.8,1,No,No
'Persona natural',713.5,0,191.22,1,'Nunca paga',2.8,1,No,No
'Persona natural',713.22,0,191.15,1,'Nunca paga',2.8,1,No,No
'Persona natural',712.87,188.22,0,0,'Con retraso',0,1,Si,No
'Persona natural',712.74,0,191.02,1,'Nunca paga',2.8,1,No,No
'Persona natural',712.4,0,190.93,1,'Nunca paga',2.8,1,No,No
'Persona natural',711.17,0,190.63,1,'Nunca paga',2.8,1,No,No
'Persona natural',709.34,0,190.16,1,'Nunca paga',0,1,No,No
'Persona natural',708.79,0,180.02,1,'Nunca paga',2.8,0,No,No
'Persona natural',708.32,0,189.9,1,'Nunca paga',2.8,1,No,No
'Persona natural',706.85,0,189.53,1,'Nunca paga',2.8,1,No,No
'Persona natural',704.84,0,189.01,1,'Nunca paga',2.8,1,No,No
'Persona natural',702.26,0,188.36,1,'Nunca paga',0,1,No,No
'Persona natural',699.77,0,187.73,1,'Nunca paga',2.8,1,No,No
'Persona natural',698.85,0,187.5,1,'Nunca paga',2.8,1,No,No
'Persona natural',697.62,0,187.18,1,'Nunca paga',2.8,1,No,No
'Persona natural',696.95,0,187.01,1,'Nunca paga',2.8,1,No,No
'Persona natural',696.95,0,0,0,'Nunca paga',0,0,No,No
'Persona natural',694.71,0,186.44,1,'Nunca paga',2.8,1,No,No
'Persona natural',694.51,0,186.39,1,'Nunca paga',2.8,1,No,No
'Persona natural',691.34,182.84,0,0,'Con retraso',0,1,Si,No
'Persona natural',690.66,0,185.42,1,'Nunca paga',2.8,1,No,No
'Persona natural',688.49,0,184.87,1,'Nunca paga',2.7,1,No,No
'Persona natural',687.93,0,184.72,1,'Nunca paga',0,0,No,No
'Persona natural',687.62,0,184.64,1,'Nunca paga',2.7,1,No,No
'Persona natural',682.28,0,183.28,1,'Nunca paga',2.7,1,No,No
'Persona natural',682.25,0,183.28,1,'Nunca paga',0,1,No,No
'Persona natural',680.96,0,182.95,1,'Nunca paga',0,1,No,No
'Persona natural',680.2,0,182.75,1,'Nunca paga',2.7,1,No,No
'Persona juridica',676.91,0,181.92,1,'Nunca paga',0,0,No,No
'Persona natural',676.91,0,181.92,1,'Nunca paga',2.7,1,No,No
'Persona natural',675.85,0,0,0,'Nunca paga',2.7,0,No,No
'Persona natural',675.45,0,181.56,1,'Nunca paga',2.7,1,No,No
'Persona natural',673.7,0,181.11,1,'Nunca paga',0,1,No,No
'Persona natural',671.1,0,180.45,1,'Nunca paga',0,1,No,No
'Persona natural',668.3,177.08,0,0,'Con retraso',0,1,Si,No
'Persona natural',668.08,0,179.68,1,'Nunca paga',2.7,1,No,No
'Persona natural',667.69,0,179.58,1,'Nunca paga',2.6,1,No,No
'Persona natural',667.27,0,179.47,1,'Nunca paga',0,1,No,No
'Persona natural',662.42,0,178.24,1,'Nunca paga',2.6,1,No,No
'Persona natural',662.41,0,178.24,1,'Nunca paga',2.6,1,No,No
'Persona natural',660.81,0,177.84,1,'Nunca paga',2.6,1,No,No
'Persona natural',660,0,177.62,1,'Nunca paga',2.6,1,No,No
'Persona natural',658.87,0,0,0,'Nunca paga',2.6,0,No,No
'Persona natural',658.81,0,177.33,1,'Nunca paga',2.6,1,No,No
'Persona natural',657.5,0,176.99,1,'Nunca paga',2.6,1,No,No
'Persona natural',656.99,174.25,0,0,'Con retraso',0,1,Si,No
'Persona natural',656.43,0,176.72,1,'Nunca paga',0,0,No,No
'Persona natural',656.17,0,176.66,1,'Nunca paga',2.6,1,No,No
'Persona natural',655.09,0,176.38,1,'Nunca paga',2.6,1,No,No
'Persona natural',653.76,0,176.04,1,'Nunca paga',2.6,1,No,No
'Persona natural',653.68,0,176.02,1,'Nunca paga',2.6,1,No,No
'Persona natural',653.19,180.31,0,0,'Con retraso',0,1,Si,No
'Persona natural',651.31,0,175.42,1,'Nunca paga',0,1,No,No
'Persona natural',651.28,172.82,0,0,'Con retraso',0,1,Si,No
'Persona natural',649.5,0,174.96,1,'Nunca paga',2.6,1,No,No
'Persona natural',647.75,0,174.51,1,'Nunca paga',2.6,1,No,No
'Persona natural',647.69,0,174.5,1,'Nunca paga',2.6,1,No,No
'Persona natural',646.77,171.7,0,0,'Con retraso',0,1,Si,No
'Persona natural',646.7,0,174.25,1,'Nunca paga',0,1,No,No
'Persona natural',644.55,0,173.7,1,'Nunca paga',2.6,1,No,No
'Persona natural',641.54,0,172.94,1,'Nunca paga',0,1,No,No
'Persona natural',641.51,0,172.93,1,'Nunca paga',0,1,No,No
'Persona natural',639.95,0,172.53,1,'Nunca paga',2.5,1,No,No
'Persona natural',638.86,0,172.26,1,'Nunca paga',2.5,1,No,No
'Persona natural',638.72,169.68,0,0,'Con retraso',0,1,Si,No
'Persona natural',637.14,0,171.82,1,'Nunca paga',2.5,1,No,No
'Persona natural',633.09,0,170.8,1,'Nunca paga',2.5,1,No,No
'Persona natural',632.07,0,170.53,1,'Nunca paga',2.5,1,No,No
'Persona natural',631.42,0,170.37,1,'Nunca paga',0,1,No,No
'Persona natural',631.2,0,170.31,1,'Nunca paga',0,1,No,No
'Persona natural',631.05,0,170.28,1,'Nunca paga',2.5,1,No,No
'Persona natural',630.92,167.73,0,0,'Con retraso',0,1,Si,No
'Persona natural',625.2,0,168.79,1,'Nunca paga',0,1,No,No
'Persona natural',620.71,0,167.65,1,'Nunca paga',2.5,1,No,No
'Persona natural',619.71,0,167.39,1,'Nunca paga',0,1,No,No
'Persona natural',617.88,0,166.93,1,'Nunca paga',2.5,1,No,No
'Persona natural',615.29,0,166.28,1,'Nunca paga',2.4,1,No,No
'Persona natural',614.91,153.73,0,0,'Con retraso',0,0,Si,No
'Persona natural',614.67,0,166.11,1,'Nunca paga',2.4,1,No,No
'Persona natural',612.11,0,165.46,1,'Nunca paga',2.4,1,No,No
'Persona natural',608.05,0,164.44,1,'Nunca paga',0,1,No,No
'Persona natural',607.67,0,164.34,1,'Nunca paga',0,1,No,No
'Persona juridica',607.17,0,164.21,1,'Nunca paga',0,0,No,No
'Persona natural',606.71,0,164.09,1,'Nunca paga',2.4,1,No,No
'Persona natural',606.08,163.25,0,0,'Con retraso',0,1,Si,No
'Persona natural',605.49,0,163.79,1,'Nunca paga',2.4,1,No,No
'Persona natural',605.36,0,163.75,1,'Nunca paga',2.4,1,No,No
'Persona natural',603.4,0,0,0,'Nunca paga',2.4,0,No,No
'Persona natural',602.97,0,163.15,1,'Nunca paga',0,1,No,No
'Persona natural',602.79,0,163.1,1,'Nunca paga',2.4,1,No,No
'Persona natural',602.14,0,162.93,1,'Nunca paga',2.4,1,No,No
'Persona natural',601.07,0,162.66,1,'Nunca paga',0,1,No,No
'Persona natural',600.84,0,162.6,1,'Nunca paga',2.4,1,No,No
'Persona natural',600.81,0,162.6,1,'Nunca paga',0,1,No,No
'Persona natural',599.41,0,162.24,1,'Nunca paga',2.4,1,No,No
'Persona natural',599.06,159.77,0,0,'Con retraso',0,1,Si,No
'Persona natural',598.93,0,162.12,1,'Nunca paga',2.4,1,No,No
'Persona natural',596.38,0,161.47,1,'Nunca paga',2.4,1,No,No
'Persona natural',595.96,0,161.36,1,'Nunca paga',2.4,1,No,No
'Persona natural',595.21,0,161.18,1,'Nunca paga',2.4,1,No,No
'Persona natural',594.97,0,161.12,1,'Nunca paga',2.4,1,No,No
'Persona natural',592.32,0,160.43,1,'Nunca paga',0,1,No,No
'Persona natural',592.28,0,0,0,'Nunca paga',0,0,No,No
'Persona natural',590.67,0,160.02,1,'Nunca paga',2.4,1,No,No
'Persona natural',590.11,0,159.88,1,'Nunca paga',2.4,1,No,No
'Persona natural',589.71,0,159.77,1,'Nunca paga',0,1,No,No
'Persona natural',588.44,157.11,0,0,'Con retraso',0,1,Si,No
'Persona natural',588.42,0,159.45,1,'Nunca paga',0,1,No,No
'Persona natural',587.84,0,159.3,1,'Nunca paga',2.3,1,No,No
'Persona natural',587.84,0,159.3,1,'Nunca paga',0,1,No,No
'Persona natural',585.41,0,158.69,1,'Nunca paga',2.3,1,No,No
'Persona natural',585.34,0,158.67,1,'Nunca paga',0,1,No,No
'Persona natural',584,0,158.32,1,'Nunca paga',0,1,No,No
'Persona natural',581.77,0,157.76,1,'Nunca paga',2.3,1,No,No
'Persona natural',579.83,0,157.26,1,'Nunca paga',2.3,1,No,No
'Persona natural',579.34,0,157.14,1,'Nunca paga',2.3,1,No,No
'Persona natural',578.89,0,157.03,1,'Nunca paga',2.3,1,No,No
'Persona natural',577.21,0,156.6,1,'Nunca paga',2.3,1,No,No
'Persona natural',576.97,0,156.54,1,'Nunca paga',2.3,1,No,No
'Persona natural',576.74,0,156.48,1,'Nunca paga',2.3,1,No,No
'Persona natural',575.54,153.89,0,0,'Con retraso',0,1,Si,No
'Persona natural',574.86,0,156.01,1,'Nunca paga',0,0,No,No
'Persona natural',570.83,152.71,0,0,'Con retraso',0,1,Si,No
'Persona natural',570.08,0,154.79,1,'Nunca paga',2.3,1,No,No
'Persona natural',569.85,0,154.74,1,'Nunca paga',2.3,1,No,No
'Persona natural',568.07,0,154.28,1,'Nunca paga',2.3,1,No,No
'Persona natural',567.32,0,154.09,1,'Nunca paga',2.3,1,No,No
'Persona natural',566.45,0,153.87,1,'Nunca paga',2.2,1,No,No
'Persona natural',566.36,0,153.84,1,'Nunca paga',2.2,1,No,No
'Persona natural',565.99,0,153.75,1,'Nunca paga',2.2,1,No,No
'Persona natural',565.71,0,153.68,1,'Nunca paga',0,1,No,No
'Persona natural',565.63,0,153.66,1,'Nunca paga',0,1,No,No
'Persona natural',565.58,0,153.65,1,'Nunca paga',0,0,No,No
'Persona natural',565.22,0,153.56,1,'Nunca paga',2.2,1,No,No
'Persona natural',564.63,0,153.4,1,'Nunca paga',2.2,1,No,No
'Persona natural',564.27,0,153.31,1,'Nunca paga',2.2,1,No,No
'Persona natural',564.23,151.06,0,0,'Con retraso',0,1,Si,No
'Persona natural',563.65,150.92,0,0,'Con retraso',0,1,Si,No
'Persona natural',562.08,0,152.75,1,'Nunca paga',0,1,No,No
'Persona natural',560.3,150.08,0,0,'Con retraso',0,1,Si,No
'Persona natural',560.08,0,152.25,1,'Nunca paga',2.2,1,No,No
'Persona natural',558.76,0,151.91,1,'Nunca paga',0,1,No,No
'Persona natural',557.96,0,151.71,1,'Nunca paga',0,1,No,No
'Persona natural',557.74,0,151.66,1,'Nunca paga',2.2,1,No,No
'Persona natural',557.63,0,151.63,1,'Nunca paga',2.2,1,No,No
'Persona natural',557.25,0,0,0,'Nunca paga',2.2,0,No,No
'Persona natural',555.31,0,151.04,1,'Nunca paga',0,1,No,No
'Persona natural',553.59,148.4,0,0,'Con retraso',0,1,Si,No
'Persona natural',552.47,0,150.32,1,'Nunca paga',2.2,1,No,No
'Persona natural',551.72,147.93,0,0,'Con retraso',0,1,Si,No
'Persona natural',549.74,0,149.63,1,'Nunca paga',0,1,No,No
'Persona natural',548.69,147.18,0,0,'Con retraso',0,1,Si,No
'Persona natural',545.51,0,148.55,1,'Nunca paga',0,0,No,No
'Persona natural',545.26,0,148.49,1,'Nunca paga',0,1,No,No
'Persona natural',543.6,0,148.06,1,'Nunca paga',2.2,1,No,No
'Persona natural',539.03,0,146.9,1,'Nunca paga',2.1,1,No,No
'Persona natural',537.84,144.46,0,0,'Con retraso',0,1,Si,No
'Persona natural',537.18,144.3,0,0,'Con retraso',0,1,Si,No
'Persona natural',535.57,0,146.03,1,'Nunca paga',2.1,1,No,No
'Persona juridica',535.42,0,145.99,1,'Nunca paga',0,0,No,No
'Persona natural',534.63,0,145.79,1,'Nunca paga',2.1,1,No,No
'Persona natural',532.49,0,145.25,1,'Nunca paga',0,1,No,No
'Persona natural',528.1,0,144.13,1,'Nunca paga',2.1,1,No,No
'Persona natural',528.05,142.02,0,0,'Con retraso',0,1,Si,No
'Persona natural',527.91,0,144.08,1,'Nunca paga',2.1,1,No,No
'Persona natural',525.98,0,143.59,1,'Nunca paga',2.1,1,No,No
'Persona natural',525.15,0,0,0,'Nunca paga',0,0,No,No
'Persona natural',524.61,0,143.25,1,'Nunca paga',2.1,1,No,No
'Persona natural',524.19,0,143.13,1,'Nunca paga',0,1,No,No
'Persona natural',523.65,130.92,0,0,'Con retraso',0,0,Si,No
'Persona natural',522.15,0,142.62,1,'Nunca paga',2.1,1,No,No
'Persona natural',521.56,140.39,0,0,'Con retraso',0,1,Si,No
'Persona natural',521.45,140.37,0,0,'Con retraso',0,1,Si,No
'Persona natural',521.37,0,142.42,1,'Nunca paga',0,1,No,No
'Persona natural',519.16,0,141.85,1,'Nunca paga',2.1,1,No,No
'Persona natural',518.79,0,141.76,1,'Nunca paga',0,1,No,No
'Persona natural',518.22,0,141.62,1,'Nunca paga',2.1,1,No,No
'Persona natural',517.99,0,141.56,1,'Nunca paga',2.1,1,No,No
'Persona natural',516.46,0,141.17,1,'Nunca paga',2,1,No,No
'Persona natural',516.09,0,141.08,1,'Nunca paga',2,1,No,No
'Persona natural',515.98,139,0,0,'Con retraso',0,1,Si,No
'Persona natural',515.79,0,141,1,'Nunca paga',2,1,No,No
'Persona natural',513.72,0,140.47,1,'Nunca paga',2,1,No,No
'Persona natural',513.21,138.31,0,0,'Con retraso',0,1,Si,No
'Persona natural',510.64,0,139.69,1,'Nunca paga',0,1,No,No
'Persona natural',510.4,0,139.63,1,'Nunca paga',2,1,No,No
'Persona natural',510.05,0,139.55,1,'Nunca paga',2,1,No,No
'Persona natural',509.84,0,139.49,1,'Nunca paga',2,1,No,No
'Persona natural',509.41,0,139.39,1,'Nunca paga',0,1,No,No
'Persona natural',508.02,0,139.03,1,'Nunca paga',2,1,No,No
'Persona natural',507.55,0,138.91,1,'Nunca paga',2,1,No,No
'Persona natural',507.19,0,138.82,1,'Nunca paga',0,1,No,No
'Persona natural',506.45,0,138.63,1,'Nunca paga',2,1,No,No
'Persona natural',506.28,0,138.58,1,'Nunca paga',2,1,No,No
'Persona natural',503.31,0,137.83,1,'Nunca paga',0,1,No,No
'Persona natural',502.05,0,137.52,1,'Nunca paga',0,1,No,No
'Persona natural',500.69,0,137.17,1,'Nunca paga',0,1,No,No
'Persona natural',499.36,0,136.82,1,'Nunca paga',2,1,No,No
'Persona natural',498.32,0,136.56,1,'Nunca paga',2,1,No,No
'Persona natural',497.58,134.4,0,0,'Con retraso',0,1,Si,No
'Persona natural',495.73,0,135.91,1,'Nunca paga',2,1,No,No
'Persona natural',494.57,133.65,0,0,'Con retraso',0,1,Si,No
'Persona natural',492.9,0,135.19,1,'Nunca paga',2,1,No,No
'Persona natural',492.85,0,135.18,1,'Nunca paga',2,1,No,No
'Persona natural',491.97,0,134.96,1,'Nunca paga',2,1,No,No
'Persona natural',490.29,0,134.53,1,'Nunca paga',2,1,No,No
'Persona natural',490.02,122.51,0,0,'Con retraso',0,0,Si,No
'Persona natural',489.43,0,134.31,1,'Nunca paga',0,1,No,No
'Persona natural',489.24,132.31,0,0,'Con retraso',0,1,Si,No
'Persona natural',487.36,0,133.78,1,'Nunca paga',1.9,1,No,No
'Persona natural',487.24,0,133.75,1,'Nunca paga',1.9,1,No,No
'Persona natural',482.58,0,132.57,1,'Nunca paga',0,1,No,No
'Persona natural',481.42,0,132.27,1,'Nunca paga',1.9,1,No,No
'Persona natural',480.01,130.01,0,0,'Con retraso',0,1,Si,No
'Persona natural',479.8,129.95,0,0,'Con retraso',0,1,Si,No
'Persona juridica',477.85,0,131.37,1,'Nunca paga',0,0,No,No
'Persona natural',477.4,0,131.25,1,'Nunca paga',0,1,No,No
'Persona natural',477.01,0,131.16,1,'Nunca paga',0,1,No,No
'Persona natural',474.54,0,130.53,1,'Nunca paga',0,1,No,No
'Persona natural',471.6,0,129.77,1,'Nunca paga',1.9,1,No,No
'Persona natural',470.57,0,129.52,1,'Nunca paga',1.9,1,No,No
'Persona natural',469.08,0,129.13,1,'Nunca paga',1.9,1,No,No
'Persona natural',469.05,0,129.13,1,'Nunca paga',1.9,1,No,No
'Persona natural',468.98,0,129.11,1,'Nunca paga',1.9,1,No,No
'Persona natural',468.66,127.17,0,0,'Con retraso',0,1,Si,No
'Persona natural',468.61,0,129.02,1,'Nunca paga',1.9,1,No,No
'Persona natural',467.76,0,128.8,1,'Nunca paga',1.9,1,No,No
'Persona natural',467.53,0,128.75,1,'Nunca paga',1.9,1,No,No
'Persona natural',466.55,0,128.49,1,'Nunca paga',1.8,1,No,No
'Persona natural',466.21,0,128.41,1,'Nunca paga',1.8,1,No,No
'Persona natural',465.13,0,128.14,1,'Nunca paga',1.8,1,No,No
'Persona natural',464.84,0,128.06,1,'Nunca paga',1.8,1,No,No
'Persona natural',464.24,0,127.91,1,'Nunca paga',0,1,No,No
'Persona natural',463.96,0,127.83,1,'Nunca paga',1.8,1,No,No
'Persona natural',462.97,0,127.59,1,'Nunca paga',0,1,No,No
'Persona natural',462.48,0,127.46,1,'Nunca paga',0,1,No,No
'Persona natural',459,0,126.57,1,'Nunca paga',0,1,No,No
'Persona natural',457.77,0,126.27,1,'Nunca paga',1.8,1,No,No
'Persona natural',457.75,124.44,0,0,'Con retraso',0,1,Si,No
'Persona natural',457.47,0,126.19,1,'Nunca paga',1.8,1,No,No
'Persona natural',456.44,0,125.92,1,'Nunca paga',1.8,1,No,No
'Persona natural',455.37,123.85,0,0,'Con retraso',0,1,Si,No
'Persona natural',454.06,0,125.32,1,'Nunca paga',1.8,1,No,No
'Persona natural',453.98,0,125.3,1,'Nunca paga',0,1,No,No
'Persona natural',453.54,0,125.19,1,'Nunca paga',1.8,1,No,No
'Persona natural',453.45,123.37,0,0,'Con retraso',0,1,Si,No
'Persona natural',451.29,122.83,0,0,'Con retraso',0,1,Si,No
'Persona juridica',450.96,122.74,0,0,'Con retraso',0,0,Si,No
'Persona natural',450.33,0,124.38,1,'Nunca paga',1.8,1,No,No
'Persona natural',450.26,0,124.36,1,'Nunca paga',0,1,No,No
'Persona natural',450.14,0,124.33,1,'Nunca paga',1.8,1,No,No
'Persona natural',449.41,0,124.15,1,'Nunca paga',1.8,1,No,No
'Persona natural',446.66,0,123.45,1,'Nunca paga',1.8,1,No,No
'Persona natural',445.68,0,123.19,1,'Nunca paga',1.8,1,No,No
'Persona natural',445.09,0,0,0,'Nunca paga',0,0,No,No
'Persona natural',444.54,121.14,0,0,'Con retraso',0,1,Si,No
'Persona natural',444.2,121.05,0,0,'Con retraso',0,1,Si,No
'Persona natural',443.66,0,122.68,1,'Nunca paga',0,0,No,No
'Persona natural',442.44,0,122.37,1,'Nunca paga',1.8,1,No,No
'Persona natural',441.76,120.44,0,0,'Con retraso',0,1,Si,No
'Persona natural',441.01,0,122.01,1,'Nunca paga',1.8,1,No,No
'Persona natural',440.52,0,121.88,1,'Nunca paga',1.8,1,No,No
'Persona natural',440.17,0,121.8,1,'Nunca paga',0,1,No,No
'Persona natural',439.99,0,121.75,1,'Nunca paga',1.8,1,No,No
'Persona natural',439.6,0,121.65,1,'Nunca paga',1.8,1,No,No
'Persona natural',438.65,0,121.41,1,'Nunca paga',0,1,No,No
'Persona natural',437.9,0,121.22,1,'Nunca paga',0,0,No,No
'Persona natural',437.82,0,121.2,1,'Nunca paga',1.7,1,No,No
'Persona natural',436.99,0,120.99,1,'Nunca paga',0,1,No,No
'Persona natural',434.81,0,120.44,1,'Nunca paga',0,1,No,No
'Persona natural',434.71,118.68,0,0,'Con retraso',0,1,Si,No
'Persona natural',434.58,0,120.38,1,'Nunca paga',0,0,No,No
'Persona natural',434.01,0,120.24,1,'Nunca paga',1.7,1,No,No
'Persona natural',433.8,118.45,0,0,'Con retraso',0,1,Si,No
'Persona natural',431.37,0,119.56,1,'Nunca paga',0,1,No,No
'Persona natural',431.35,0,119.55,1,'Nunca paga',1.7,1,No,No
'Persona natural',429.92,118.77,0,0,'Con retraso',0,1,Si,No
'Persona natural',427.84,0,118.66,1,'Nunca paga',1.7,1,No,No
'Persona natural',426.81,0,118.41,1,'Nunca paga',1.7,1,No,No
'Persona natural',426.72,0,118.38,1,'Nunca paga',0,1,No,No
'Persona natural',423.51,0,117.56,1,'Nunca paga',1.7,1,No,No
'Persona natural',420.94,0,116.91,1,'Nunca paga',1.7,1,No,No
'Persona natural',420.43,0,116.78,1,'Nunca paga',1.7,1,No,No
'Persona natural',419.62,114.91,0,0,'Con retraso',0,1,Si,No
'Persona natural',419.43,0,116.53,1,'Nunca paga',1.7,1,No,No
'Persona natural',418.7,0,0,0,'Nunca paga',0,0,No,No
'Persona natural',417.82,0,116.12,1,'Nunca paga',1.7,1,No,No
'Persona natural',417.68,0,116.08,1,'Nunca paga',1.7,1,No,No
'Persona natural',416.78,0,115.86,1,'Nunca paga',0,1,No,No
'Persona natural',416.08,0,115.67,1,'Nunca paga',1.6,1,No,No
'Persona natural',415.2,0,115.45,1,'Nunca paga',0,0,No,No
'Persona natural',414.27,0,115.22,1,'Nunca paga',0,0,No,No
'Persona natural',412.6,0,114.79,1,'Nunca paga',0,1,No,No
'Persona natural',411.33,0,114.48,1,'Nunca paga',1.6,1,No,No
'Persona natural',411.24,0,114.44,1,'Nunca paga',1.6,1,No,No
'Persona natural',410.26,112.57,0,0,'Con retraso',0,1,Si,No
'Persona natural',410.18,0,114.18,1,'Nunca paga',1.6,1,No,No
'Persona natural',409.78,0,114.08,1,'Nunca paga',1.6,1,No,No
'Persona natural',408.24,0,113.68,1,'Nunca paga',1.6,1,No,No
'Persona natural',408.19,0,113.67,1,'Nunca paga',1.6,1,No,No
'Persona natural',407.96,0,113.61,1,'Nunca paga',1.6,1,No,No
'Persona natural',407.2,0,113.42,1,'Nunca paga',1.6,1,No,No
'Persona natural',406.78,0,113.32,1,'Nunca paga',0,0,No,No
'Persona natural',406.48,0,113.24,1,'Nunca paga',0,1,No,No
'Persona natural',405.53,0,113,1,'Nunca paga',1.6,1,No,No
'Persona natural',404.35,0,112.7,1,'Nunca paga',0,1,No,No
'Persona natural',404.24,0,112.67,1,'Nunca paga',0,1,No,No
'Persona natural',402.4,0,112.2,1,'Nunca paga',0,1,No,No
'Persona natural',399.66,0,111.51,1,'Nunca paga',1.6,1,No,No
'Persona natural',399.14,0,111.38,1,'Nunca paga',1.6,1,No,No
'Persona natural',399.07,0,111.36,1,'Nunca paga',1.6,1,No,No
'Persona natural',399.04,0,111.35,1,'Nunca paga',1.6,1,No,No
'Persona natural',397.61,0,110.99,1,'Nunca paga',1.6,1,No,No
'Persona natural',397.24,109.31,0,0,'Con retraso',0,1,Si,No
'Persona natural',396.77,0,110.78,1,'Nunca paga',0,1,No,No
'Persona natural',396.53,0,110.72,1,'Nunca paga',0,1,No,No
'Persona natural',394.5,0,110.2,1,'Nunca paga',0,1,No,No
'Persona natural',393.78,0,110.02,1,'Nunca paga',1.6,1,No,No
'Persona natural',393.18,0,109.86,1,'Nunca paga',1.6,1,No,No
'Persona natural',392.51,0,109.69,1,'Nunca paga',0,1,No,No
'Persona natural',390.91,0,0,0,'Nunca paga',1.6,0,No,No
'Persona natural',390.7,0,109.23,1,'Nunca paga',1.6,1,No,No
'Persona natural',389.57,0,108.95,1,'Nunca paga',1.6,1,No,No
'Persona natural',389.49,0,108.93,1,'Nunca paga',1.6,1,No,No
'Persona natural',389.42,0,108.91,1,'Nunca paga',1.6,1,No,No
'Persona natural',388.11,0,108.57,1,'Nunca paga',0,1,No,No
'Persona natural',387.71,0,108.47,1,'Nunca paga',0,1,No,No
'Persona natural',385.22,0,107.84,1,'Nunca paga',0,1,No,No
'Persona natural',384.19,0,107.58,1,'Nunca paga',0,1,No,No
'Persona natural',382.71,0,107.2,1,'Nunca paga',0,1,No,No
'Persona natural',381.81,0,106.98,1,'Nunca paga',1.5,1,No,No
'Persona natural',381.71,0,106.95,1,'Nunca paga',1.5,1,No,No
'Persona natural',381.21,0,106.83,1,'Nunca paga',0,1,No,No
'Persona natural',380.94,0,106.75,1,'Nunca paga',1.5,1,No,No
'Persona natural',380.4,0,106.61,1,'Nunca paga',0,1,No,No
'Persona natural',379.08,0,106.28,1,'Nunca paga',0,1,No,No
'Persona natural',378.62,0,106.17,1,'Nunca paga',1.5,1,No,No
'Persona natural',377.06,0,105.77,1,'Nunca paga',1.5,1,No,No
'Persona natural',376.91,0,105.73,1,'Nunca paga',0,0,No,No
'Persona natural',375.84,0,105.45,1,'Nunca paga',1.5,1,No,No
'Persona natural',375.81,0,0,0,'Nunca paga',1.5,0,No,No
'Persona natural',375.68,0,105.41,1,'Nunca paga',0,1,No,No
'Persona natural',375.57,0,105.39,1,'Nunca paga',1.5,1,No,No
'Persona natural',374.97,0,105.24,1,'Nunca paga',1.5,1,No,No
'Persona natural',374.22,0,105.05,1,'Nunca paga',1.5,1,No,No
'Persona natural',373.08,0,104.75,1,'Nunca paga',1.5,1,No,No
'Persona natural',372.69,0,104.66,1,'Nunca paga',1.5,1,No,No
'Persona natural',372.64,0,104.64,1,'Nunca paga',1.5,1,No,No
'Persona natural',371.93,0,104.47,1,'Nunca paga',1.5,1,No,No
'Persona natural',370.46,0,104.09,1,'Nunca paga',1.5,1,No,No
'Persona natural',370.05,0,103.99,1,'Nunca paga',0,1,No,No
'Persona natural',369.32,0,103.8,1,'Nunca paga',1.5,1,No,No
'Persona natural',368.92,0,103.7,1,'Nunca paga',1.5,1,No,No
'Persona natural',368.19,0,103.51,1,'Nunca paga',1.5,1,No,No
'Persona natural',367.34,0,103.3,1,'Nunca paga',1.5,1,No,No
'Persona natural',366.9,0,103.19,1,'Nunca paga',1.5,1,No,No
'Persona natural',366.61,0,103.12,1,'Nunca paga',1.5,1,No,No
'Persona natural',364.77,0,102.65,1,'Nunca paga',0,1,No,No
'Persona natural',363.24,100.81,0,0,'Con retraso',0,1,Si,No
'Persona natural',361.63,0,101.85,1,'Nunca paga',0,1,No,No
'Persona natural',361.35,0,101.78,1,'Nunca paga',1.4,1,No,No
'Persona natural',361.13,0,101.73,1,'Nunca paga',0,1,No,No
'Persona natural',359.98,0,101.43,1,'Nunca paga',1.4,1,No,No
'Persona natural',359.86,0,101.4,1,'Nunca paga',0,1,No,No
'Persona natural',359.85,0,101.4,1,'Nunca paga',1.4,1,No,No
'Persona natural',359.66,0,101.35,1,'Nunca paga',0,1,No,No
'Persona natural',356.27,0,100.49,1,'Nunca paga',1.4,1,No,No
'Persona natural',356.09,0,100.45,1,'Nunca paga',1.4,1,No,No
'Persona natural',355.96,0,100.4,1,'Nunca paga',1.4,1,No,No
'Persona natural',354.29,0,99.99,1,'Nunca paga',1.4,1,No,No
'Persona natural',352.86,98.22,0,0,'Con retraso',0,1,Si,No
'Persona natural',352.59,0,99.55,1,'Nunca paga',1.4,1,No,No
'Persona natural',352.51,0,99.53,1,'Nunca paga',1.4,1,No,No
'Persona natural',352.4,0,99.5,1,'Nunca paga',1.4,1,No,No
'Persona natural',352.28,0,0,0,'Nunca paga',1.4,0,No,No
'Persona natural',351.47,0,99.27,1,'Nunca paga',1.4,1,No,No
'Persona natural',351.07,0,99.17,1,'Nunca paga',0,1,No,No
'Persona natural',350.96,0,99.14,1,'Nunca paga',0,1,No,No
'Persona natural',350.77,0,99.09,1,'Nunca paga',1.4,1,No,No
'Persona natural',350.74,0,99.08,1,'Nunca paga',1.4,1,No,No
'Persona natural',350.63,97.66,0,0,'Con retraso',0,1,Si,No
'Persona natural',350.53,0,99.03,1,'Nunca paga',0,1,No,No
'Persona natural',350.22,0,98.95,1,'Nunca paga',0,1,No,No
'Persona natural',349.93,0,98.88,1,'Nunca paga',1.4,1,No,No
'Persona natural',349.76,0,0,0,'Nunca paga',0,0,No,No
'Persona natural',348.24,0,98.44,1,'Nunca paga',1.4,1,No,No
'Persona natural',348.07,0,98.4,1,'Nunca paga',1.4,1,No,No
'Persona natural',347.68,0,98.3,1,'Nunca paga',0,1,No,No
'Persona natural',346.87,0,98.1,1,'Nunca paga',0,1,No,No
'Persona natural',346.87,0,98.1,1,'Nunca paga',1.4,1,No,No
'Persona natural',345.99,0,97.88,1,'Nunca paga',1.4,1,No,No
'Persona natural',345.85,0,97.84,1,'Nunca paga',0,1,No,No
'Persona natural',344.95,0,97.61,1,'Nunca paga',1.4,1,No,No
'Persona natural',344.14,0,97.41,1,'Nunca paga',0,1,No,No
'Persona natural',344.02,0,97.38,1,'Nunca paga',1.4,1,No,No
'Persona natural',343.76,0,97.31,1,'Nunca paga',1.4,1,No,No
'Persona natural',342.72,0,97.04,1,'Nunca paga',1.4,1,No,No
'Persona natural',342.24,0,96.92,1,'Nunca paga',1.4,1,No,No
'Persona natural',342.03,0,96.87,1,'Nunca paga',1.4,1,No,No
'Persona natural',341.96,0,96.85,1,'Nunca paga',1.4,1,No,No
'Persona natural',341.64,0,96.77,1,'Nunca paga',0,1,No,No
'Persona natural',341.63,0,96.77,1,'Nunca paga',1.4,1,No,No
'Persona natural',341.61,0,96.77,1,'Nunca paga',1.4,1,No,No
'Persona natural',341.31,0,96.69,1,'Nunca paga',0,1,No,No
'Persona natural',341.28,0,96.68,1,'Nunca paga',0,0,No,No
'Persona natural',338.34,0,95.93,1,'Nunca paga',1.3,1,No,No
'Persona natural',338.15,0,95.88,1,'Nunca paga',1.3,1,No,No
'Persona natural',338.11,0,95.87,1,'Nunca paga',1.3,1,No,No
'Persona natural',338.1,0,95.87,1,'Nunca paga',1.3,1,No,No
'Persona natural',337.23,0,0,0,'Nunca paga',0,0,No,No
'Persona natural',336.92,0,95.57,1,'Nunca paga',1.3,1,No,No
'Persona juridica',336.82,94.21,0,0,'Con retraso',0,0,Si,No
'Persona natural',336.33,0,95.43,1,'Nunca paga',0,1,No,No
'Persona natural',335.93,0,95.33,1,'Nunca paga',0,1,No,No
'Persona natural',335.81,0,95.29,1,'Nunca paga',1.3,1,No,No
'Persona natural',334.69,0,95.01,1,'Nunca paga',0,1,No,No
'Persona natural',334.61,93.66,0,0,'Con retraso',0,1,Si,No
'Persona natural',334.6,0,94.98,1,'Nunca paga',1.3,1,No,No
'Persona natural',334.44,0,94.94,1,'Nunca paga',1.3,1,No,No
'Persona natural',333.32,0,94.65,1,'Nunca paga',1.3,1,No,No
'Persona natural',333.23,0,94.63,1,'Nunca paga',1.3,1,No,No
'Persona natural',332.66,0,94.49,1,'Nunca paga',1.3,1,No,No
'Persona natural',332.62,0,94.48,1,'Nunca paga',1.3,1,No,No
'Persona natural',331.88,92.97,0,0,'Con retraso',0,1,Si,No
'Persona natural',331.66,0,94.24,1,'Nunca paga',1.3,1,No,No
'Persona natural',331.11,0,94.1,1,'Nunca paga',1.3,1,No,No
'Persona natural',330.33,0,93.9,1,'Nunca paga',1.3,1,No,No
'Persona natural',330.02,92.51,0,0,'Con retraso',0,1,Si,No
'Persona natural',330.01,92.51,0,0,'Con retraso',0,1,Si,No
'Persona natural',329.87,0,93.78,1,'Nunca paga',1.3,1,No,No
'Persona natural',329.85,0,93.78,1,'Nunca paga',0,0,No,No
'Persona natural',327.13,0,0,0,'Nunca paga',1.3,0,No,No
'Persona natural',326.31,0,92.88,1,'Nunca paga',1.3,1,No,No
'Persona natural',325.99,91.5,0,0,'Con retraso',0,1,Si,No
'Persona natural',325.56,0,92.68,1,'Nunca paga',1.3,1,No,No
'Persona natural',325.17,91.3,0,0,'Con retraso',0,1,Si,No
'Persona natural',324.69,0,92.47,1,'Nunca paga',1.3,1,No,No
'Persona natural',323.61,0,0,0,'Nunca paga',1.3,0,No,No
'Persona natural',323.13,90.79,0,0,'Con retraso',0,1,Si,No
'Persona natural',322.72,0,91.96,1,'Nunca paga',1.3,1,No,No
'Persona natural',322.69,0,91.96,1,'Nunca paga',1.3,1,No,No
'Persona natural',321.61,0,91.69,1,'Nunca paga',1.3,1,No,No
'Persona natural',321.59,0,91.68,1,'Nunca paga',1.3,1,No,No
'Persona natural',321.06,0,91.55,1,'Nunca paga',1.3,1,No,No
'Persona natural',321.04,0,91.54,1,'Nunca paga',1.3,1,No,No
'Persona natural',320.37,0,91.37,1,'Nunca paga',1.3,1,No,No
'Persona natural',319.81,0,91.23,1,'Nunca paga',1.3,1,No,No
'Persona natural',319.14,0,91.06,1,'Nunca paga',1.3,1,No,No
'Persona natural',318.93,0,91.01,1,'Nunca paga',1.3,1,No,No
'Persona natural',318.78,0,90.97,1,'Nunca paga',0,1,No,No
'Persona natural',317.94,0,90.75,1,'Nunca paga',1.3,1,No,No
'Persona natural',317.61,0,90.67,1,'Nunca paga',1.3,1,No,No
'Persona natural',315.94,0,90.25,1,'Nunca paga',1.3,1,No,No
'Persona natural',315.7,0,90.18,1,'Nunca paga',0,1,No,No
'Persona natural',315.25,0,90.07,1,'Nunca paga',1.2,1,No,No
'Persona natural',314.15,0,89.79,1,'Nunca paga',1.2,1,No,No
'Persona natural',313.81,0,89.71,1,'Nunca paga',1.2,1,No,No
'Persona natural',313.39,0,89.6,1,'Nunca paga',0,1,No,No
'Persona natural',311.34,0,89.08,1,'Nunca paga',0,1,No,No
'Persona natural',308.95,0,88.47,1,'Nunca paga',1.2,1,No,No
'Persona natural',306.68,0,87.89,1,'Nunca paga',0,1,No,No
'Persona natural',306.01,0,87.73,1,'Nunca paga',0,0,No,No
'Persona natural',305.69,0,87.65,1,'Nunca paga',1.2,1,No,No
'Persona natural',305.24,0,87.52,1,'Nunca paga',1.2,1,No,No
'Persona natural',303.81,0,87.17,1,'Nunca paga',1.2,1,No,No
'Persona natural',301.73,85.44,0,0,'Con retraso',0,1,Si,No
'Persona natural',298.9,0,85.92,1,'Nunca paga',0,0,No,No
'Persona natural',298.77,0,85.89,1,'Nunca paga',1.2,1,No,No
'Persona natural',298.31,0,85.77,1,'Nunca paga',1.2,1,No,No
'Persona natural',297.11,84.28,0,0,'Con retraso',0,1,Si,No
'Persona natural',294.29,0,84.75,1,'Nunca paga',1.2,1,No,No
'Persona natural',293.59,0,84.57,1,'Nunca paga',1.2,1,No,No
'Persona natural',293.44,0,84.53,1,'Nunca paga',1.2,1,No,No
'Persona natural',292.73,0,84.35,1,'Nunca paga',1.2,1,No,No
'Persona natural',291.25,0,83.98,1,'Nunca paga',0,1,No,No
'Persona natural',290.48,0,83.77,1,'Nunca paga',1.2,1,No,No
'Persona natural',289.55,0,83.54,1,'Nunca paga',1.2,1,No,No
'Persona natural',287.8,0,83.09,1,'Nunca paga',1.1,1,No,No
'Persona natural',287.67,0,83.06,1,'Nunca paga',1.1,1,No,No
'Persona natural',286.51,0,82.77,1,'Nunca paga',0,0,No,No
'Persona natural',286.47,0,82.76,1,'Nunca paga',0,1,No,No
'Persona natural',285.31,0,82.46,1,'Nunca paga',1.1,1,No,No
'Persona natural',285.18,81.3,0,0,'Con retraso',0,1,Si,No
'Persona natural',284.68,0,82.3,1,'Nunca paga',1.1,1,No,No
'Persona natural',283.27,0,81.95,1,'Nunca paga',1.1,1,No,No
'Persona natural',283.23,0,81.94,1,'Nunca paga',0,1,No,No
'Persona natural',283.12,0,0,0,'Nunca paga',0,0,No,No
'Persona natural',282.39,0,81.72,1,'Nunca paga',1.1,1,No,No
'Persona natural',282.32,0,81.7,1,'Nunca paga',0,1,No,No
'Persona natural',281.45,0,81.49,1,'Nunca paga',1.1,1,No,No
'Persona natural',281.45,0,81.49,1,'Nunca paga',0,1,No,No
'Persona natural',280.39,0,81.21,1,'Nunca paga',1.1,1,No,No
'Persona natural',279.81,0,81.07,1,'Nunca paga',1.1,1,No,No
'Persona natural',279.62,0,81.02,1,'Nunca paga',1.1,1,No,No
'Persona natural',278.53,0,80.75,1,'Nunca paga',0,1,No,No
'Persona natural',277.13,0,80.39,1,'Nunca paga',0,1,No,No
'Persona natural',276.76,0,0,0,'Nunca paga',0,0,No,No
'Persona natural',276.13,0,80.14,1,'Nunca paga',1.1,1,No,No
'Persona natural',275.11,0,79.87,1,'Nunca paga',1.1,1,No,No
'Persona natural',274.67,0,79.76,1,'Nunca paga',0,1,No,No
'Persona natural',274.49,0,79.72,1,'Nunca paga',1.1,1,No,No
'Persona natural',274.41,0,79.7,1,'Nunca paga',1.1,1,No,No
'Persona natural',273.99,0,79.59,1,'Nunca paga',1.1,1,No,No
'Persona natural',273.91,0,79.57,1,'Nunca paga',1.1,1,No,No
'Persona natural',273.71,0,79.52,1,'Nunca paga',1.1,1,No,No
'Persona natural',273.66,0,79.51,1,'Nunca paga',1.1,1,No,No
'Persona natural',273.39,0,0,0,'Nunca paga',0,0,No,No
'Persona natural',271.47,0,78.95,1,'Nunca paga',1.1,1,No,No
'Persona natural',270.9,0,78.81,1,'Nunca paga',1.1,1,No,No
'Persona natural',270.61,0,78.74,1,'Nunca paga',1.1,1,No,No
'Persona natural',270.37,0,78.67,1,'Nunca paga',0,1,No,No
'Persona natural',270.35,77.59,0,0,'Con retraso',0,1,Si,No
'Persona natural',267.27,76.82,0,0,'Con retraso',0,1,Si,No
'Persona juridica',266.83,0,77.77,1,'Nunca paga',0,0,No,No
'Persona natural',266.25,0,77.63,1,'Nunca paga',1.1,1,No,No
'Persona natural',266.11,0,0,0,'Nunca paga',1.1,0,No,No
'Persona natural',265.91,0,77.54,1,'Nunca paga',0,1,No,No
'Persona natural',265.08,0,77.32,1,'Nunca paga',1,1,No,No
'Persona natural',263.65,0,76.97,1,'Nunca paga',1,1,No,No
'Persona natural',263.17,0,76.85,1,'Nunca paga',1,1,No,No
'Persona natural',261.64,0,76.45,1,'Nunca paga',1,1,No,No
'Persona natural',260.89,0,76.27,1,'Nunca paga',1,1,No,No
'Persona natural',260.56,0,76.18,1,'Nunca paga',1,1,No,No
'Persona natural',260.19,0,76.08,1,'Nunca paga',0,1,No,No
'Persona natural',259.8,0,75.98,1,'Nunca paga',1,1,No,No
'Persona natural',259.25,0,75.85,1,'Nunca paga',0,1,No,No
'Persona natural',258.81,74.71,0,0,'Con retraso',0,1,Si,No
'Persona juridica',258.77,0,75.73,1,'Nunca paga',0,0,No,No
'Persona natural',258.61,0,75.69,1,'Nunca paga',1,1,No,No
'Persona natural',257.73,0,75.46,1,'Nunca paga',1,1,No,No
'Persona natural',257.62,0,75.43,1,'Nunca paga',1,1,No,No
'Persona natural',257.41,0,75.38,1,'Nunca paga',1,1,No,No
'Persona natural',257.38,74.35,0,0,'Con retraso',0,1,Si,No
'Persona natural',257.35,0,75.36,1,'Nunca paga',0,1,No,No
'Persona natural',257.34,0,75.36,1,'Nunca paga',1,1,No,No
'Persona natural',257.2,0,75.32,1,'Nunca paga',1,1,No,No
'Persona natural',256.59,0,0,0,'Nunca paga',1,0,No,No
'Persona natural',256.56,0,75.16,1,'Nunca paga',0,1,No,No
'Persona natural',255.78,0,74.97,1,'Nunca paga',0,1,No,No
'Persona natural',255.61,0,74.93,1,'Nunca paga',0,1,No,No
'Persona natural',255.46,0,74.89,1,'Nunca paga',1,1,No,No
'Persona natural',255.32,0,74.84,1,'Nunca paga',0,0,No,No
'Persona natural',255.3,0,74.84,1,'Nunca paga',1,1,No,No
'Persona natural',254.56,0,74.65,1,'Nunca paga',1,1,No,No
'Persona natural',254.5,0,74.64,1,'Nunca paga',0,1,No,No
'Persona natural',254.24,0,74.57,1,'Nunca paga',1,1,No,No
'Persona natural',254.11,0,74.54,1,'Nunca paga',1,1,No,No
'Persona natural',253.25,0,74.33,1,'Nunca paga',0,1,No,No
'Persona natural',253.13,0,74.3,1,'Nunca paga',1,1,No,No
'Persona natural',253.03,0,74.27,1,'Nunca paga',1,1,No,No
'Persona natural',252.98,0,74.26,1,'Nunca paga',1,1,No,No
'Persona natural',252.84,0,74.22,1,'Nunca paga',1,1,No,No
'Persona natural',252.57,73.15,0,0,'Con retraso',0,1,Si,No
'Persona natural',252.49,0,74.13,1,'Nunca paga',1,1,No,No
'Persona natural',251.78,0,73.95,1,'Nunca paga',1,1,No,No
'Persona natural',251.76,0,73.94,1,'Nunca paga',1,1,No,No
'Persona natural',250.77,72.7,0,0,'Con retraso',0,1,Si,No
'Persona natural',250.4,0,73.6,1,'Nunca paga',0,1,No,No
'Persona natural',250.34,0,73.59,1,'Nunca paga',1,1,No,No
'Persona natural',249.92,0,73.47,1,'Nunca paga',1,1,No,No
'Persona natural',248.73,0,73.18,1,'Nunca paga',1,1,No,No
'Persona natural',248.52,0,73.12,1,'Nunca paga',0,1,No,No
'Persona natural',248.19,0,0,0,'Nunca paga',1,0,No,No
'Persona natural',248.13,0,73.03,1,'Nunca paga',1,1,No,No
'Persona natural',247.31,0,72.81,1,'Nunca paga',0,1,No,No
'Persona natural',246.41,0,72.59,1,'Nunca paga',1,1,No,No
'Persona natural',245.83,0,72.44,1,'Nunca paga',1,1,No,No
'Persona natural',245.82,0,72.44,1,'Nunca paga',1,1,No,No
'Persona natural',245.74,0,72.42,1,'Nunca paga',1,1,No,No
'Persona natural',244.94,0,72.21,1,'Nunca paga',1,1,No,No
'Persona natural',244,0,71.97,1,'Nunca paga',1,1,No,No
'Persona natural',243.62,0,71.88,1,'Nunca paga',1,1,No,No
'Persona natural',242.51,0,71.59,1,'Nunca paga',1,1,No,No
'Persona natural',242.21,0,71.52,1,'Nunca paga',1,1,No,No
'Persona natural',241.22,0,71.27,1,'Nunca paga',1,1,No,No
'Persona natural',241.15,70.29,0,0,'Con retraso',0,1,Si,No
'Persona natural',240.51,0,71.09,1,'Nunca paga',1,1,No,No
'Persona natural',240.15,0,70.99,1,'Nunca paga',1,1,No,No
'Persona natural',239.97,0,70.95,1,'Nunca paga',0,1,No,No
'Persona natural',239.93,0,70.94,1,'Nunca paga',0,1,No,No
'Persona natural',239.24,0,70.76,1,'Nunca paga',0,1,No,No
'Persona natural',239.01,0,70.71,1,'Nunca paga',1,1,No,No
'Persona natural',237.98,0,70.45,1,'Nunca paga',1,1,No,No
'Persona natural',237.57,0,70.34,1,'Nunca paga',0.9,1,No,No
'Persona natural',236.65,0,70.11,1,'Nunca paga',0,1,No,No
'Persona natural',236.42,69.11,0,0,'Con retraso',0,1,Si,No
'Persona natural',236.34,0,70.03,1,'Nunca paga',0.9,1,No,No
'Persona natural',236.25,0,70.01,1,'Nunca paga',0.9,1,No,No
'Persona natural',236.03,0,69.95,1,'Nunca paga',0,1,No,No
'Persona natural',235.72,0,69.87,1,'Nunca paga',0.9,1,No,No
'Persona natural',235.66,0,69.86,1,'Nunca paga',0,1,No,No
'Persona natural',235.5,0,69.82,1,'Nunca paga',0,1,No,No
'Persona natural',235.39,0,69.79,1,'Nunca paga',0,1,No,No
'Persona natural',235.23,0,69.75,1,'Nunca paga',0.9,1,No,No
'Persona natural',234.64,0,0,0,'Nunca paga',0.9,0,No,No
'Persona natural',234.01,0,69.44,1,'Nunca paga',0.9,1,No,No
'Persona natural',233.91,0,69.41,1,'Nunca paga',0.9,1,No,No
'Persona natural',232.39,0,69.02,1,'Nunca paga',0,1,No,No
'Persona natural',232.39,68.1,0,0,'Con retraso',0,1,Si,No
'Persona natural',231.62,0,68.83,1,'Nunca paga',0.9,1,No,No
'Persona natural',231.55,0,68.81,1,'Nunca paga',0.9,1,No,No
'Persona natural',231.07,0,68.69,1,'Nunca paga',0.9,1,No,No
'Persona natural',230.97,0,68.67,1,'Nunca paga',0.9,1,No,No
'Persona natural',229.75,0,68.35,1,'Nunca paga',0,1,No,No
'Persona natural',229.17,0,68.21,1,'Nunca paga',0.9,1,No,No
'Persona natural',228.68,0,68.08,1,'Nunca paga',0,1,No,No
'Persona natural',228.24,0,67.97,1,'Nunca paga',0.9,1,No,No
'Persona natural',228.07,0,67.93,1,'Nunca paga',0.9,1,No,No
'Persona natural',227.93,0,67.9,1,'Nunca paga',0,1,No,No
'Persona natural',227.63,0,0,0,'Nunca paga',0.9,0,No,No
'Persona natural',227.34,0,67.74,1,'Nunca paga',0.9,1,No,No
'Persona natural',227.32,0,67.73,1,'Nunca paga',0,1,No,No
'Persona natural',227.2,0,67.7,1,'Nunca paga',0,1,No,No
'Persona natural',225.44,0,67.26,1,'Nunca paga',0.9,1,No,No
'Persona natural',225.32,0,67.23,1,'Nunca paga',0,1,No,No
'Persona natural',224.69,0,67.07,1,'Nunca paga',0,1,No,No
'Persona natural',224.08,0,66.91,1,'Nunca paga',0,1,No,No
'Persona natural',223.55,0,0,0,'Nunca paga',0.9,0,No,No
'Persona natural',223.39,0,66.74,1,'Nunca paga',0,1,No,No
'Persona natural',223.18,0,66.69,1,'Nunca paga',0.9,1,No,No
'Persona natural',222.12,0,66.41,1,'Nunca paga',0.9,1,No,No
'Persona natural',221.7,0,66.31,1,'Nunca paga',0.9,1,No,No
'Persona natural',221.61,0,66.29,1,'Nunca paga',0,1,No,No
'Persona natural',221.4,0,66.23,1,'Nunca paga',0,1,No,No
'Persona natural',220.88,0,66.1,1,'Nunca paga',0.9,1,No,No
'Persona natural',220.69,0,66.06,1,'Nunca paga',0,1,No,No
'Persona natural',220.5,0,66.01,1,'Nunca paga',0,1,No,No
'Persona natural',219.86,64.97,0,0,'Con retraso',0,1,Si,No
'Persona natural',219.5,0,65.75,1,'Nunca paga',0,1,No,No
'Persona natural',219.25,0,65.69,1,'Nunca paga',0.9,1,No,No
'Persona natural',218.08,0,65.39,1,'Nunca paga',0.9,1,No,No
'Persona natural',218.02,0,65.38,1,'Nunca paga',0.9,1,No,No
'Persona natural',217.09,0,65.14,1,'Nunca paga',0,1,No,No
'Persona natural',216.97,0,65.11,1,'Nunca paga',0.9,1,No,No
'Persona natural',216.94,0,65.1,1,'Nunca paga',0,1,No,No
'Persona natural',216.14,0,64.9,1,'Nunca paga',0.9,1,No,No
'Persona natural',216.08,0,64.88,1,'Nunca paga',0,1,No,No
'Persona natural',215.98,0,0,0,'Nunca paga',0.9,0,No,No
'Persona natural',215.96,0,64.85,1,'Nunca paga',0.9,1,No,No
'Persona natural',215.72,0,64.79,1,'Nunca paga',0.9,1,No,No
'Persona natural',215.61,0,64.77,1,'Nunca paga',0.9,1,No,No
'Persona natural',215.39,0,64.71,1,'Nunca paga',0.9,1,No,No
'Persona natural',214.45,0,64.47,1,'Nunca paga',0,1,No,No
'Persona natural',213.78,0,64.3,1,'Nunca paga',0,1,No,No
'Persona natural',213.3,0,64.18,1,'Nunca paga',0,1,No,No
'Persona natural',212.85,0,64.07,1,'Nunca paga',0.8,1,No,No
'Persona natural',212.63,63.16,0,0,'Con retraso',0,1,Si,No
'Persona natural',212.03,0,63.85,1,'Nunca paga',0.8,1,No,No
'Persona natural',211.83,0,63.8,1,'Nunca paga',0.8,1,No,No
'Persona natural',211.7,0,63.77,1,'Nunca paga',0,0,No,No
'Persona natural',211.68,0,63.76,1,'Nunca paga',0.8,1,No,No
'Persona natural',211.36,0,63.68,1,'Nunca paga',0.8,1,No,No
'Persona natural',211.29,0,63.67,1,'Nunca paga',0.8,1,No,No
'Persona natural',211.02,0,63.6,1,'Nunca paga',0.8,1,No,No
'Persona natural',210.67,0,63.51,1,'Nunca paga',0.8,1,No,No
'Persona natural',210.43,0,63.45,1,'Nunca paga',0,0,No,No
'Persona natural',210.39,0,63.44,1,'Nunca paga',0.8,1,No,No
'Persona natural',209.85,0,63.3,1,'Nunca paga',0,0,No,No
'Persona natural',209.77,0,63.28,1,'Nunca paga',0.8,1,No,No
'Persona natural',209.72,0,63.26,1,'Nunca paga',0,0,No,No
'Persona natural',209.23,0,63.14,1,'Nunca paga',0.8,1,No,No
'Persona natural',208.92,0,63.06,1,'Nunca paga',0.8,1,No,No
'Persona natural',208.36,0,62.92,1,'Nunca paga',0.8,1,No,No
'Persona natural',208.33,0,62.92,1,'Nunca paga',0,1,No,No
'Persona natural',208.28,0,62.9,1,'Nunca paga',0,1,No,No
'Persona natural',208.03,62.01,0,0,'Con retraso',0,1,Si,No
'Persona natural',207.68,0,62.75,1,'Nunca paga',0.8,1,No,No
'Persona natural',207.62,0,62.74,1,'Nunca paga',0.8,1,No,No
'Persona natural',207.48,61.87,0,0,'Con retraso',0,1,Si,No
'Persona natural',206.76,61.69,0,0,'Con retraso',0,1,Si,No
'Persona natural',206.05,0,62.34,1,'Nunca paga',0.8,1,No,No
'Persona natural',205.98,0,62.32,1,'Nunca paga',0.8,1,No,No
'Persona natural',205.71,0,62.25,1,'Nunca paga',0.8,1,No,No
'Persona natural',205.59,0,62.22,1,'Nunca paga',0.8,1,No,No
'Persona natural',205.37,0,62.17,1,'Nunca paga',0,1,No,No
'Persona natural',204.93,0,62.05,1,'Nunca paga',0.8,1,No,No
'Persona natural',204.74,0,62,1,'Nunca paga',0,1,No,No
'Persona natural',204.66,0,61.98,1,'Nunca paga',0.8,1,No,No
'Persona natural',204.32,0,61.89,1,'Nunca paga',0.8,1,No,No
'Persona natural',204.04,0,61.82,1,'Nunca paga',0.8,1,No,No
'Persona natural',203.6,0,0,0,'Nunca paga',0.8,0,No,No
'Persona natural',203.54,60.89,0,0,'Con retraso',0,1,Si,No
'Persona natural',202.77,0,61.51,1,'Nunca paga',0,1,No,No
'Persona natural',202.31,0,61.38,1,'Nunca paga',0.8,1,No,No
'Persona natural',201.79,0,61.25,1,'Nunca paga',0,1,No,No
'Persona natural',201.45,0,61.17,1,'Nunca paga',0.8,1,No,No
'Persona natural',201.34,0,61.14,1,'Nunca paga',0,1,No,No
'Persona natural',200.22,0,60.86,1,'Nunca paga',0.8,1,No,No
'Persona natural',199.95,0,60.78,1,'Nunca paga',0.8,1,No,No
'Persona natural',199.46,0,60.66,1,'Nunca paga',0.8,1,No,No
'Persona natural',199.34,0,60.63,1,'Nunca paga',0.8,1,No,No
'Persona natural',198.93,0,60.53,1,'Nunca paga',0.8,1,No,No
'Persona natural',198.43,0,60.4,1,'Nunca paga',0.8,1,No,No
'Persona natural',198.37,0,60.39,1,'Nunca paga',0,1,No,No
'Persona natural',198.29,0,60.37,1,'Nunca paga',0.8,1,No,No
'Persona natural',197.5,0,60.17,1,'Nunca paga',0.8,1,No,No
'Persona natural',197.36,0,60.12,1,'Nunca paga',0,1,No,No
'Persona natural',197.28,0,60.1,1,'Nunca paga',0,1,No,No
'Persona natural',197.23,0,60.09,1,'Nunca paga',0,1,No,No
'Persona natural',197.07,0,60.05,1,'Nunca paga',0,1,No,No
'Persona natural',196.84,0,59.99,1,'Nunca paga',0.8,1,No,No
'Persona natural',196.31,0,59.86,1,'Nunca paga',0.8,1,No,No
'Persona natural',196.13,0,0,0,'Nunca paga',0.8,0,No,No
'Persona natural',196.11,0,59.81,1,'Nunca paga',0.8,1,No,No
'Persona natural',195.74,58.94,0,0,'Con retraso',0,1,Si,No
'Persona natural',195.41,0,59.64,1,'Nunca paga',0.8,1,No,No
'Persona natural',195.14,0,59.57,1,'Nunca paga',0,1,No,No
'Persona natural',195.04,0,59.54,1,'Nunca paga',0.8,1,No,No
'Persona natural',194.89,0,59.5,1,'Nunca paga',0.8,1,No,No
'Persona natural',192.86,0,58.99,1,'Nunca paga',0.8,1,No,No
'Persona natural',192.83,0,58.98,1,'Nunca paga',0,1,No,No
'Persona natural',192.44,0,58.87,1,'Nunca paga',0.8,1,No,No
'Persona natural',192.3,0,58.84,1,'Nunca paga',0.8,1,No,No
'Persona natural',191.57,0,58.66,1,'Nunca paga',0.8,1,No,No
'Persona natural',191.11,0,58.54,1,'Nunca paga',0.8,1,No,No
'Persona natural',190.6,0,48.41,1,'Nunca paga',0.8,0,No,No
'Persona natural',190.05,0,58.28,1,'Nunca paga',0.8,1,No,No
'Persona natural',189.93,0,58.25,1,'Nunca paga',0.8,1,No,No
'Persona natural',189.52,0,58.13,1,'Nunca paga',0.8,1,No,No
'Persona natural',188.07,57.02,0,0,'Con retraso',0,1,Si,No
'Persona natural',188.07,0,57.77,1,'Nunca paga',0.8,1,No,No
'Persona natural',187.25,0,57.56,1,'Nunca paga',0.7,1,No,No
'Persona natural',187.19,0,57.54,1,'Nunca paga',0,1,No,No
'Persona natural',186.6,56.65,0,0,'Con retraso',0,1,Si,No
'Persona natural',185.75,0,57.18,1,'Nunca paga',0,1,No,No
'Persona natural',185.44,0,0,0,'Nunca paga',0.7,0,No,No
'Persona natural',184.92,0,56.97,1,'Nunca paga',0.7,1,No,No
'Persona natural',184.2,0,56.78,1,'Nunca paga',0.7,1,No,No
'Persona natural',184.02,56.01,0,0,'Con retraso',0,1,Si,No
'Persona natural',182.98,0,56.48,1,'Nunca paga',0.7,1,No,No
'Persona natural',182.36,0,56.31,1,'Nunca paga',0,1,No,No
'Persona natural',182.28,0,56.29,1,'Nunca paga',0.7,1,No,No
'Persona natural',181.9,0,56.2,1,'Nunca paga',0.7,1,No,No
'Persona natural',181.55,0,56.11,1,'Nunca paga',0.7,1,No,No
'Persona natural',180.49,0,55.85,1,'Nunca paga',0,1,No,No
'Persona natural',180.09,0,55.75,1,'Nunca paga',0.7,1,No,No
'Persona natural',178.96,0,55.45,1,'Nunca paga',0.7,1,No,No
'Persona natural',178.89,0,55.44,1,'Nunca paga',0,1,No,No
'Persona natural',178.6,0,55.36,1,'Nunca paga',0.7,1,No,No
'Persona natural',178.31,54.58,0,0,'Con retraso',0,1,Si,No
'Persona natural',178.06,0,55.23,1,'Nunca paga',0,1,No,No
'Persona natural',177.96,0,0,0,'Nunca paga',0.7,0,No,No
'Persona natural',177.32,0,55.03,1,'Nunca paga',0.7,1,No,No
'Persona natural',177.21,0,0,0,'Nunca paga',0,0,No,No
'Persona natural',177.03,0,54.96,1,'Nunca paga',0.7,1,No,No
'Persona juridica',177.01,0,54.96,1,'Nunca paga',0,0,No,No
'Persona natural',176.75,0,54.89,1,'Nunca paga',0.7,1,No,No
'Persona natural',176.45,0,54.82,1,'Nunca paga',0.7,1,No,No
'Persona natural',176.32,0,54.78,1,'Nunca paga',0.7,1,No,No
'Persona juridica',175.47,0,54.57,1,'Nunca paga',0,0,No,No
'Persona natural',175.33,0,54.54,1,'Nunca paga',0.7,1,No,No
'Persona natural',175.31,0,54.53,1,'Nunca paga',0.7,1,No,No
'Persona natural',174.73,53.69,0,0,'Con retraso',0,1,Si,No
'Persona natural',174.43,53.61,0,0,'Con retraso',0,1,Si,No
'Persona natural',174.42,0,54.3,1,'Nunca paga',0,1,No,No
'Persona natural',173.77,0,54.14,1,'Nunca paga',0.7,1,No,No
'Persona natural',173.42,0,54.05,1,'Nunca paga',0.7,1,No,No
'Persona natural',173.28,53.32,0,0,'Con retraso',0,1,Si,No
'Persona natural',172.86,0,53.91,1,'Nunca paga',0.7,1,No,No
'Persona natural',172.79,0,53.89,1,'Nunca paga',0.7,1,No,No
'Persona natural',170.82,0,53.39,1,'Nunca paga',0.7,1,No,No
'Persona natural',170.81,0,53.39,1,'Nunca paga',0.7,1,No,No
'Persona natural',170.76,0,53.37,1,'Nunca paga',0.7,1,No,No
'Persona natural',170.52,0,53.31,1,'Nunca paga',0.7,1,No,No
'Persona natural',170.48,52.62,0,0,'Con retraso',0,1,Si,No
'Persona natural',169.74,0,43.11,1,'Nunca paga',0,0,No,No
'Persona natural',169.71,0,53.1,1,'Nunca paga',0.7,1,No,No
'Persona natural',168.62,52.16,0,0,'Con retraso',0,1,Si,No
'Persona natural',168.59,52.15,0,0,'Con retraso',0,1,Si,No
'Persona natural',168.55,0,52.81,1,'Nunca paga',0,0,No,No
'Persona natural',168.47,0,52.79,1,'Nunca paga',0.7,1,No,No
'Persona natural',167.33,0,52.51,1,'Nunca paga',0.7,1,No,No
'Persona natural',166.65,0,52.33,1,'Nunca paga',0.7,1,No,No
'Persona natural',166.45,0,52.28,1,'Nunca paga',0,1,No,No
'Persona natural',166.27,0,52.23,1,'Nunca paga',0,1,No,No
'Persona natural',165.86,51.47,0,0,'Con retraso',0,1,Si,No
'Persona natural',165.34,0,52,1,'Nunca paga',0.7,1,No,No
'Persona natural',165.05,0,51.93,1,'Nunca paga',0.7,1,No,No
'Persona natural',164.93,0,0,0,'Nunca paga',0.7,0,No,No
'Persona natural',164.89,0,51.89,1,'Nunca paga',0.7,1,No,No
'Persona natural',164.77,0,51.86,1,'Nunca paga',0.7,1,No,No
'Persona natural',164.5,51.13,0,0,'Con retraso',0,1,Si,No
'Persona natural',164.48,0,51.77,1,'Nunca paga',0.6,1,No,No
'Persona natural',164.39,0,51.75,1,'Nunca paga',0.6,1,No,No
'Persona natural',164.38,0,51.75,1,'Nunca paga',0.6,1,No,No
'Persona natural',164.22,0,51.71,1,'Nunca paga',0.6,1,No,No
'Persona natural',164.09,0,51.68,1,'Nunca paga',0.6,1,No,No
'Persona natural',164.05,0,51.67,1,'Nunca paga',0.6,1,No,No
'Persona natural',163.9,0,51.63,1,'Nunca paga',0.6,1,No,No
'Persona natural',163.69,0,51.58,1,'Nunca paga',0.6,1,No,No
'Persona natural',163.54,0,51.54,1,'Nunca paga',0.6,1,No,No
'Persona natural',163.46,0,51.52,1,'Nunca paga',0.6,1,No,No
'Persona natural',163.44,0,51.51,1,'Nunca paga',0.6,1,No,No
'Persona natural',163.42,0,51.51,1,'Nunca paga',0.6,1,No,No
'Persona natural',163.41,0,51.51,1,'Nunca paga',0,1,No,No
'Persona natural',163.3,0,51.48,1,'Nunca paga',0.6,1,No,No
'Persona natural',163.24,0,51.46,1,'Nunca paga',0,1,No,No
'Persona natural',162.92,0,51.38,1,'Nunca paga',0,1,No,No
'Persona natural',162.83,50.71,0,0,'Con retraso',0,1,Si,No
'Persona natural',162.8,0,51.35,1,'Nunca paga',0.6,1,No,No
'Persona natural',162.64,0,51.31,1,'Nunca paga',0,1,No,No
'Persona natural',162.5,0,51.28,1,'Nunca paga',0,1,No,No
'Persona natural',162.31,0,51.23,1,'Nunca paga',0.6,1,No,No
'Persona juridica',162.19,0,51.19,1,'Nunca paga',0,0,No,No
'Persona natural',162.14,0,51.18,1,'Nunca paga',0.6,1,No,No
'Persona natural',162.12,0,51.17,1,'Nunca paga',0.6,1,No,No
'Persona natural',161.99,50.5,0,0,'Con retraso',0,1,Si,No
'Persona natural',161.88,0,51.11,1,'Nunca paga',0.6,1,No,No
'Persona natural',161.86,0,51.11,1,'Nunca paga',0.6,1,No,No
'Persona natural',161.76,0,51.08,1,'Nunca paga',0.6,1,No,No
'Persona natural',161.49,0,51.02,1,'Nunca paga',0.6,1,No,No
'Persona natural',161.38,0,50.99,1,'Nunca paga',0,1,No,No
'Persona natural',161.33,50.34,0,0,'Con retraso',0,1,Si,No
'Persona natural',161.06,0,50.91,1,'Nunca paga',0.6,1,No,No
'Persona natural',161.01,0,50.9,1,'Nunca paga',0.6,1,No,No
'Persona natural',160.75,0,50.83,1,'Nunca paga',0.6,1,No,No
'Persona natural',160.72,0,50.82,1,'Nunca paga',0.6,1,No,No
'Persona natural',160.57,0,50.79,1,'Nunca paga',0.6,1,No,No
'Persona natural',160.52,0,50.77,1,'Nunca paga',0.6,1,No,No
'Persona natural',160.05,0,50.66,1,'Nunca paga',0.6,1,No,No
'Persona natural',160.05,0,50.66,1,'Nunca paga',0,1,No,No
'Persona natural',159.85,0,50.61,1,'Nunca paga',0,1,No,No
'Persona natural',159.82,0,50.6,1,'Nunca paga',0.6,1,No,No
'Persona natural',159.7,49.93,0,0,'Con retraso',0,1,Si,No
'Persona natural',159.64,0,50.54,1,'Nunca paga',0.6,1,No,No
'Persona natural',159.44,0,50.49,1,'Nunca paga',0.6,1,No,No
'Persona natural',159.33,0,0,0,'Nunca paga',0.6,0,No,No
'Persona natural',159.29,0,50.46,1,'Nunca paga',0,1,No,No
'Persona natural',159.28,0,50.45,1,'Nunca paga',0,1,No,No
'Persona natural',158.92,0,50.36,1,'Nunca paga',0.6,1,No,No
'Persona natural',158.76,0,50.32,1,'Nunca paga',0.6,1,No,No
'Persona natural',158.48,0,50.25,1,'Nunca paga',0.6,1,No,No
'Persona natural',158.43,0,50.24,1,'Nunca paga',0,1,No,No
'Persona natural',158.31,0,50.21,1,'Nunca paga',0.6,1,No,No
'Persona natural',158.25,0,50.2,1,'Nunca paga',0,1,No,No
'Persona natural',158.2,49.55,0,0,'Con retraso',0,1,Si,No
'Persona natural',158.19,0,50.18,1,'Nunca paga',0.6,1,No,No
'Persona natural',158.17,0,50.18,1,'Nunca paga',0,0,No,No
'Persona natural',158.14,0,50.17,1,'Nunca paga',0.6,1,No,No
'Persona natural',158.08,0,50.15,1,'Nunca paga',0,1,No,No
'Persona natural',158.06,0,50.15,1,'Nunca paga',0,0,No,No
'Persona natural',158,0,50.13,1,'Nunca paga',0,1,No,No
'Persona natural',157.95,0,50.12,1,'Nunca paga',0.6,1,No,No
'Persona natural',157.79,49.45,0,0,'Con retraso',0,1,Si,No
'Persona natural',157.69,49.88,0,0,'Con retraso',0,1,Si,No
'Persona natural',157.63,0,50.04,1,'Nunca paga',0.6,1,No,No
'Persona natural',156.94,49.24,0,0,'Con retraso',0,1,Si,No
'Persona natural',156.87,0,49.84,1,'Nunca paga',0,1,No,No
'Persona natural',156.78,0,49.82,1,'Nunca paga',0.6,1,No,No
'Persona natural',156.69,0,49.8,1,'Nunca paga',0,1,No,No
'Persona natural',156.56,0,49.76,1,'Nunca paga',0.6,1,No,No
'Persona natural',156.22,0,49.68,1,'Nunca paga',0,0,No,No
'Persona natural',156.17,0,49.67,1,'Nunca paga',0.6,1,No,No
'Persona natural',156.14,0,49.66,1,'Nunca paga',0.6,1,No,No
'Persona natural',156.12,49.03,0,0,'Con retraso',0,1,Si,No
'Persona natural',156.07,0,49.64,1,'Nunca paga',0.6,1,No,No
'Persona natural',155.94,0,49.61,1,'Nunca paga',0.6,1,No,No
'Persona natural',155.82,49.43,0,0,'Con retraso',0,1,Si,No
'Persona natural',155.71,0,49.55,1,'Nunca paga',0.6,1,No,No
'Persona natural',155.66,0,49.54,1,'Nunca paga',0,1,No,No
'Persona natural',155.42,0,49.48,1,'Nunca paga',0.6,1,No,No
'Persona natural',155.36,0,49.46,1,'Nunca paga',0.6,1,No,No
'Persona natural',155.36,0,49.46,1,'Nunca paga',0,0,No,No
'Persona natural',155.34,0,49.46,1,'Nunca paga',0,1,No,No
'Persona natural',155.24,0,49.43,1,'Nunca paga',0,1,No,No
'Persona natural',155.24,0,49.43,1,'Nunca paga',0.6,1,No,No
'Persona natural',155.23,0,49.43,1,'Nunca paga',0,1,No,No
'Persona natural',155.03,0,49.38,1,'Nunca paga',0.6,1,No,No
'Persona natural',155,0,49.37,1,'Nunca paga',0.6,1,No,No
'Persona natural',154.75,0,49.31,1,'Nunca paga',0.6,1,No,No
'Persona natural',154.69,49.13,0,0,'Con retraso',0,1,Si,No
'Persona natural',154.55,0,49.25,1,'Nunca paga',0,1,No,No
'Persona natural',154.45,0,49.23,1,'Nunca paga',0,1,No,No
'Persona natural',154.41,0,49.22,1,'Nunca paga',0.6,1,No,No
'Persona natural',154.4,0,49.21,1,'Nunca paga',0.6,1,No,No
'Persona natural',154.39,0,49.21,1,'Nunca paga',0.6,1,No,No
'Persona natural',154.35,0,49.2,1,'Nunca paga',0.6,1,No,No
'Persona natural',154.29,0,49.19,1,'Nunca paga',0.6,1,No,No
'Persona natural',154.15,0,49.15,1,'Nunca paga',0.6,1,No,No
'Persona natural',154.14,0,49.15,1,'Nunca paga',0,1,No,No
'Persona natural',154.09,0,49.14,1,'Nunca paga',0,0,No,No
'Persona natural',154.08,0,49.13,1,'Nunca paga',0,1,No,No
'Persona natural',153.85,0,49.08,1,'Nunca paga',0,1,No,No
'Persona natural',153.84,0,49.07,1,'Nunca paga',0.6,1,No,No
'Persona natural',153.69,0,49.04,1,'Nunca paga',0,1,No,No
'Persona natural',153.59,0,49.01,1,'Nunca paga',0.6,1,No,No
'Persona natural',153.38,0,48.96,1,'Nunca paga',0.6,1,No,No
'Persona natural',153.32,0,48.94,1,'Nunca paga',0.6,1,No,No
'Persona natural',153.27,48.32,0,0,'Con retraso',0,1,Si,No
'Persona natural',153.16,0,48.9,1,'Nunca paga',0.6,1,No,No
'Persona natural',153.14,0,48.9,1,'Nunca paga',0.6,1,No,No
'Persona natural',153.06,0,48.88,1,'Nunca paga',0,1,No,No
'Persona natural',152.8,0,48.81,1,'Nunca paga',0.6,1,No,No
'Persona natural',152.65,0,48.78,1,'Nunca paga',0.6,1,No,No
'Persona natural',152.62,0,48.77,1,'Nunca paga',0.6,1,No,No
'Persona natural',152.6,0,48.76,1,'Nunca paga',0,1,No,No
'Persona natural',152.52,0,48.74,1,'Nunca paga',0,1,No,No
'Persona natural',152.43,0,48.72,1,'Nunca paga',0.6,1,No,No
'Persona natural',152.35,0,48.7,1,'Nunca paga',0,1,No,No
'Persona natural',152.28,0,48.68,1,'Nunca paga',0.6,1,No,No
'Persona natural',151.97,0,48.6,1,'Nunca paga',0.6,1,No,No
'Persona natural',151.95,47.99,0,0,'Con retraso',0,1,Si,No
'Persona natural',151.94,0,48.59,1,'Nunca paga',0,1,No,No
'Persona natural',151.9,0,48.58,1,'Nunca paga',0,1,No,No
'Persona natural',151.88,0,48.57,1,'Nunca paga',0.6,1,No,No
'Persona natural',151.85,47.97,0,0,'Con retraso',0,1,Si,No
'Persona natural',151.84,0,48.56,1,'Nunca paga',0.6,1,No,No
'Persona natural',151.83,0,48.56,1,'Nunca paga',0.6,1,No,No
'Persona natural',151.79,0,48.55,1,'Nunca paga',0,1,No,No
'Persona natural',151.64,0,48.51,1,'Nunca paga',0.6,1,No,No
'Persona natural',151.59,47.9,0,0,'Con retraso',0,1,Si,No
'Persona natural',151.47,0,48.47,1,'Nunca paga',0.6,1,No,No
'Persona natural',151.41,0,48.46,1,'Nunca paga',0.6,1,No,No
'Persona natural',151.27,0,48.42,1,'Nunca paga',0,1,No,No
'Persona natural',151.26,0,48.42,1,'Nunca paga',0,0,No,No
'Persona natural',151.25,0,48.42,1,'Nunca paga',0,0,No,No
'Persona natural',151.24,47.81,0,0,'Con retraso',0,1,Si,No
'Persona natural',151.22,0,48.41,1,'Nunca paga',0.6,1,No,No
'Persona natural',150.96,0,48.34,1,'Nunca paga',0.6,1,No,No
'Persona natural',150.58,0,48.25,1,'Nunca paga',0.6,1,No,No
'Persona natural',150.44,0,48.21,1,'Nunca paga',0.6,1,No,No
'Persona natural',150.42,0,48.21,1,'Nunca paga',0.6,1,No,No
'Persona natural',150.3,0,48.18,1,'Nunca paga',0.6,1,No,No
'Persona natural',150.28,0,48.17,1,'Nunca paga',0.6,1,No,No
'Persona natural',150.27,0,48.17,1,'Nunca paga',0.6,1,No,No
'Persona natural',150.2,0,48.15,1,'Nunca paga',0,1,No,No
'Persona natural',150.06,47.52,0,0,'Con retraso',0,1,Si,No
'Persona natural',150.02,0,48.11,1,'Nunca paga',0.6,1,No,No
'Persona natural',149.97,0,48.1,1,'Nunca paga',0.6,1,No,No
'Persona natural',149.86,0,48.07,1,'Nunca paga',0.6,1,No,No
'Persona natural',149.74,0,48.04,1,'Nunca paga',0.6,1,No,No
'Persona natural',149.69,47.43,0,0,'Con retraso',0,1,Si,No
'Persona natural',149.64,0,48,1,'Nunca paga',0.6,1,No,No
'Persona natural',149.62,0,0,0,'Nunca paga',0,0,No,No
'Persona natural',149.59,0,47.99,1,'Nunca paga',0.6,1,No,No
'Persona natural',149.38,0,47.94,1,'Nunca paga',0,1,No,No
'Persona natural',149.36,0,47.93,1,'Nunca paga',0,1,No,No
'Persona natural',149.32,47.33,0,0,'Con retraso',0,1,Si,No
'Persona natural',149.22,47.74,0,0,'Con retraso',0,1,Si,No
'Persona natural',149.22,0,47.9,1,'Nunca paga',0.6,1,No,No
'Persona natural',148.72,0,47.77,1,'Nunca paga',0.6,1,No,No
'Persona natural',148.62,47.16,0,0,'Con retraso',0,1,Si,No
'Persona natural',148.57,0,47.74,1,'Nunca paga',0.6,1,No,No
'Persona natural',148.5,0,47.72,1,'Nunca paga',0.6,1,No,No
'Persona natural',148.39,0,47.69,1,'Nunca paga',0.6,1,No,No
'Persona natural',148.23,0,47.65,1,'Nunca paga',0.6,1,No,No
'Persona natural',147.95,0,47.58,1,'Nunca paga',0.6,1,No,No
'Persona natural',147.92,0,47.57,1,'Nunca paga',0.6,1,No,No
'Persona natural',147.81,0,47.55,1,'Nunca paga',0,0,No,No
'Persona natural',147.8,0,47.54,1,'Nunca paga',0.6,1,No,No
'Persona natural',147.78,0,47.54,1,'Nunca paga',0.6,1,No,No
'Persona natural',147.67,0,47.51,1,'Nunca paga',0,1,No,No
'Persona natural',147.43,0,0,0,'Nunca paga',0.6,0,No,No
'Persona natural',147.42,0,47.45,1,'Nunca paga',0,1,No,No
'Persona natural',147.34,0,47.43,1,'Nunca paga',0,1,No,No
'Persona natural',147.26,0,47.41,1,'Nunca paga',0.6,1,No,No
'Persona natural',147.22,46.81,0,0,'Con retraso',0,1,Si,No
'Persona natural',147.13,0,47.37,1,'Nunca paga',0.6,1,No,No
'Persona natural',147.08,0,47.35,1,'Nunca paga',0,1,No,No
'Persona natural',147.01,0,47.34,1,'Nunca paga',0.6,1,No,No
'Persona natural',146.99,0,47.33,1,'Nunca paga',0,1,No,No
'Persona natural',146.96,0,47.32,1,'Nunca paga',0.6,1,No,No
'Persona natural',146.84,0,47.29,1,'Nunca paga',0.6,1,No,No
'Persona natural',146.66,0,47.25,1,'Nunca paga',0,1,No,No
'Persona natural',146.58,0,47.23,1,'Nunca paga',0.6,1,No,No
'Persona natural',146.53,46.64,0,0,'Con retraso',0,1,Si,No
'Persona natural',146.44,0,47.19,1,'Nunca paga',0.6,1,No,No
'Persona natural',146.41,46.61,0,0,'Con retraso',0,1,Si,No
'Persona natural',146.39,0,47.18,1,'Nunca paga',0,1,No,No
'Persona natural',146.27,0,47.15,1,'Nunca paga',0,1,No,No
'Persona natural',146.24,0,0,0,'Nunca paga',0,0,No,No
'Persona natural',146,0,47.08,1,'Nunca paga',0,1,No,No
'Persona natural',145.88,0,47.05,1,'Nunca paga',0.6,1,No,No
'Persona natural',145.66,0,47,1,'Nunca paga',0.6,1,No,No
'Persona natural',145.5,46.38,0,0,'Con retraso',0,1,Si,No
'Persona natural',145.5,0,46.96,1,'Nunca paga',0.6,1,No,No
'Persona natural',145.48,46.37,0,0,'Con retraso',0,1,Si,No
'Persona natural',145.3,0,46.91,1,'Nunca paga',0,1,No,No
'Persona natural',145.21,0,46.89,1,'Nunca paga',0,1,No,No
'Persona natural',145.21,0,0,0,'Nunca paga',0.6,0,No,No
'Persona natural',145.2,0,46.88,1,'Nunca paga',0.6,1,No,No
'Persona natural',145.16,0,46.87,1,'Nunca paga',0.6,1,No,No
'Persona natural',145.13,0,46.87,1,'Nunca paga',0.6,1,No,No
'Persona natural',144.97,0,46.83,1,'Nunca paga',0.6,1,No,No
'Persona natural',144.7,0,46.76,1,'Nunca paga',0.6,1,No,No
'Persona natural',144.62,0,46.73,1,'Nunca paga',0.6,1,No,No
'Persona natural',144.35,0,46.66,1,'Nunca paga',0.6,1,No,No
'Persona natural',144.31,0,46.65,1,'Nunca paga',0,1,No,No
'Persona natural',144.18,0,46.62,1,'Nunca paga',0.6,1,No,No
'Persona natural',144.16,0,46.61,1,'Nunca paga',0.6,1,No,No
'Persona natural',144.14,46.04,0,0,'Con retraso',0,1,Si,No
'Persona natural',144.1,0,46.6,1,'Nunca paga',0.6,1,No,No
'Persona natural',144.09,0,46.6,1,'Nunca paga',0,1,No,No
'Persona natural',144.09,0,46.6,1,'Nunca paga',0.6,1,No,No
'Persona natural',144.03,0,46.58,1,'Nunca paga',0.6,1,No,No
'Persona natural',143.96,0,46.56,1,'Nunca paga',0.6,1,No,No
'Persona natural',143.91,0,46.55,1,'Nunca paga',0.6,1,No,No
'Persona natural',143.64,0,36.48,1,'Nunca paga',0.6,0,No,No
'Persona natural',143.57,0,46.47,1,'Nunca paga',0.6,1,No,No
'Persona natural',143.56,0,46.46,1,'Nunca paga',0.6,1,No,No
'Persona natural',143.51,45.88,0,0,'Con retraso',0,1,Si,No
'Persona natural',143.44,0,0,0,'Nunca paga',0,0,No,No
'Persona natural',143.37,0,46.42,1,'Nunca paga',0,1,No,No
'Persona natural',143.31,0,46.4,1,'Nunca paga',0,1,No,No
'Persona natural',143.31,0,46.4,1,'Nunca paga',0.6,1,No,No
'Persona natural',143.29,0,46.4,1,'Nunca paga',0.6,1,No,No
'Persona natural',143.1,0,46.35,1,'Nunca paga',0,1,No,No
'Persona natural',143.09,0,46.35,1,'Nunca paga',0.6,1,No,No
'Persona natural',143,0,0,0,'Nunca paga',0,0,No,No
'Persona natural',142.74,0,46.26,1,'Nunca paga',0.6,1,No,No
'Persona natural',142.68,0,46.24,1,'Nunca paga',0.6,1,No,No
'Persona natural',142.66,0,46.24,1,'Nunca paga',0.6,1,No,No
'Persona natural',142.5,0,46.2,1,'Nunca paga',0,1,No,No
'Persona natural',142.4,0,46.17,1,'Nunca paga',0.6,1,No,No
'Persona natural',142.38,0,46.17,1,'Nunca paga',0,1,No,No
'Persona natural',142.36,0,46.16,1,'Nunca paga',0.6,1,No,No
'Persona natural',142.32,0,46.15,1,'Nunca paga',0.6,1,No,No
'Persona natural',142.3,0,46.15,1,'Nunca paga',0,1,No,No
'Persona natural',142.17,0,46.12,1,'Nunca paga',0.6,1,No,No
'Persona natural',142.02,0,46.07,1,'Nunca paga',0,1,No,No
'Persona natural',141.81,0,46.02,1,'Nunca paga',0.6,1,No,No
'Persona natural',141.57,0,45.96,1,'Nunca paga',0,1,No,No
'Persona natural',141.41,0,45.92,1,'Nunca paga',0.6,1,No,No
'Persona natural',141.18,0,45.86,1,'Nunca paga',0,0,No,No
'Persona natural',141.14,0,45.85,1,'Nunca paga',0.6,1,No,No
'Persona natural',141.03,0,45.82,1,'Nunca paga',0.6,1,No,No
'Persona natural',140.87,0,45.78,1,'Nunca paga',0.6,1,No,No
'Persona natural',140.8,0,0,0,'Nunca paga',0.6,0,No,No
'Persona natural',140.79,0,45.76,1,'Nunca paga',0,1,No,No
'Persona natural',140.75,0,45.75,1,'Nunca paga',0.6,1,No,No
'Persona natural',140.71,0,45.74,1,'Nunca paga',0.6,1,No,No
'Persona natural',140.69,0,45.74,1,'Nunca paga',0,1,No,No
'Persona natural',140.63,0,45.72,1,'Nunca paga',0,1,No,No
'Persona natural',140.57,0,45.71,1,'Nunca paga',0.6,1,No,No
'Persona natural',140.54,0,45.7,1,'Nunca paga',0.6,1,No,No
'Persona natural',140.48,45.12,0,0,'Con retraso',0,1,Si,No
'Persona natural',140.46,0,45.68,1,'Nunca paga',0.6,1,No,No
'Persona natural',140.45,0,45.68,1,'Nunca paga',0.6,1,No,No
'Persona natural',140.31,0,45.64,1,'Nunca paga',0.6,1,No,No
'Persona natural',140.27,0,45.63,1,'Nunca paga',0,1,No,No
'Persona natural',140.23,0,45.62,1,'Nunca paga',0,1,No,No
'Persona natural',139.87,0,45.53,1,'Nunca paga',0,1,No,No
'Persona natural',139.63,0,45.47,1,'Nunca paga',0.6,1,No,No
'Persona natural',139.6,0,45.45,1,'Nunca paga',0,0,No,No
'Persona natural',139.58,0,45.45,1,'Nunca paga',0.6,1,No,No
'Persona natural',139.56,0,45.44,1,'Nunca paga',0,1,No,No
'Persona natural',139.48,0,45.42,1,'Nunca paga',0.6,1,No,No
'Persona natural',139.44,0,45.41,1,'Nunca paga',0.6,1,No,No
'Persona natural',139.39,0,45.4,1,'Nunca paga',0.6,1,No,No
'Persona natural',139.35,0,45.39,1,'Nunca paga',0.6,1,No,No
'Persona natural',139.25,44.82,0,0,'Con retraso',0,0,Si,No
'Persona natural',139.2,0,45.35,1,'Nunca paga',0.6,1,No,No
'Persona natural',139.1,44.78,0,0,'Con retraso',0,1,Si,No
'Persona natural',138.95,44.74,0,0,'Con retraso',0,1,Si,No
'Persona natural',138.9,44.73,0,0,'Con retraso',0,1,Si,No
'Persona natural',138.81,0,45.26,1,'Nunca paga',0.6,1,No,No
'Persona natural',138.52,0,45.18,1,'Nunca paga',0.6,1,No,No
'Persona natural',138.46,44.62,0,0,'Con retraso',0,1,Si,No
'Persona natural',138.26,0,45.12,1,'Nunca paga',0,1,No,No
'Persona natural',138.24,0,0,0,'Nunca paga',0.6,0,No,No
'Persona natural',138.23,0,45.11,1,'Nunca paga',0.6,1,No,No
'Persona natural',138.11,0,45.08,1,'Nunca paga',0.6,1,No,No
'Persona natural',138.08,44.52,0,0,'Con retraso',0,1,Si,No
'Persona natural',138.04,0,45.06,1,'Nunca paga',0,1,No,No
'Persona natural',137.96,0,45.04,1,'Nunca paga',0.6,1,No,No
'Persona natural',137.92,0,0,0,'Nunca paga',0.6,0,No,No
'Persona natural',137.76,0,44.99,1,'Nunca paga',0.6,1,No,No
'Persona natural',137.65,0,0,0,'Nunca paga',0.6,0,No,No
'Persona natural',137.65,44.42,0,0,'Con retraso',0,1,Si,No
'Persona natural',137.32,0,0,0,'Nunca paga',0.6,0,No,No
'Persona natural',137.27,0,44.87,1,'Nunca paga',0.6,1,No,No
'Persona natural',137.26,0,44.87,1,'Nunca paga',0.6,1,No,No
'Persona natural',137.17,0,44.85,1,'Nunca paga',0.6,1,No,No
'Persona natural',137.05,0,44.81,1,'Nunca paga',0.5,1,No,No
'Persona natural',136.97,0,44.79,1,'Nunca paga',0.5,1,No,No
'Persona natural',136.94,0,44.78,1,'Nunca paga',0,1,No,No
'Persona natural',136.92,0,44.77,1,'Nunca paga',0.5,1,No,No
'Persona natural',136.9,0,44.77,1,'Nunca paga',0.5,1,No,No
'Persona natural',136.86,0,44.76,1,'Nunca paga',0.5,1,No,No
'Persona natural',136.85,0,44.76,1,'Nunca paga',0,1,No,No
'Persona natural',136.46,0,44.66,1,'Nunca paga',0,1,No,No
'Persona natural',136.42,0,0,0,'Nunca paga',0,0,No,No
'Persona natural',136.41,0,44.65,1,'Nunca paga',0,1,No,No
'Persona natural',136.31,0,44.62,1,'Nunca paga',0.5,1,No,No
'Persona natural',136.28,44.07,0,0,'Con retraso',0,1,Si,No
'Persona natural',136.27,0,44.61,1,'Nunca paga',0.5,1,No,No
'Persona natural',136.26,0,44.61,1,'Nunca paga',0.5,1,No,No
'Persona natural',136.19,0,44.59,1,'Nunca paga',0,1,No,No
'Persona natural',136.17,0,0,0,'Nunca paga',0.5,0,No,No
'Persona natural',136.06,0,44.56,1,'Nunca paga',0.5,1,No,No
'Persona natural',136.03,0,44.55,1,'Nunca paga',0.5,1,No,No
'Persona natural',136.01,0,44.55,1,'Nunca paga',0.5,1,No,No
'Persona natural',135.95,0,44.53,1,'Nunca paga',0.5,1,No,No
'Persona natural',135.76,0,44.48,1,'Nunca paga',0,1,No,No
'Persona natural',135.75,0,44.48,1,'Nunca paga',0.5,1,No,No
'Persona natural',135.68,0,44.46,1,'Nunca paga',0,1,No,No
'Persona natural',135.36,0,44.38,1,'Nunca paga',0,1,No,No
'Persona natural',135.34,0,44.38,1,'Nunca paga',0.5,1,No,No
'Persona natural',135.32,0,44.37,1,'Nunca paga',0,1,No,No
'Persona natural',135.31,0,44.37,1,'Nunca paga',0.5,1,No,No
'Persona natural',135.26,0,44.36,1,'Nunca paga',0,1,No,No
'Persona natural',135.1,0,0,0,'Nunca paga',0,0,No,No
'Persona natural',135.06,0,44.31,1,'Nunca paga',0,1,No,No
'Persona natural',134.98,0,44.29,1,'Nunca paga',0.5,1,No,No
'Persona natural',134.93,0,44.28,1,'Nunca paga',0.5,1,No,No
'Persona natural',134.88,0,44.26,1,'Nunca paga',0.5,1,No,No
'Persona natural',134.82,0,44.25,1,'Nunca paga',0.5,1,No,No
'Persona natural',134.81,0,44.25,1,'Nunca paga',0,1,No,No
'Persona natural',134.73,0,44.23,1,'Nunca paga',0.5,1,No,No
'Persona natural',134.71,0,44.22,1,'Nunca paga',0,1,No,No
'Persona natural',134.65,0,44.21,1,'Nunca paga',0,1,No,No
'Persona natural',134.64,0,44.2,1,'Nunca paga',0.5,1,No,No
'Persona natural',134.63,43.66,0,0,'Con retraso',0,1,Si,No
'Persona natural',134.49,0,44.16,1,'Nunca paga',0.5,1,No,No
'Persona natural',134.48,0,44.15,1,'Nunca paga',0.5,1,No,No
'Persona natural',134.47,0,44.15,1,'Nunca paga',0.5,1,No,No
'Persona natural',134.38,0,44.13,1,'Nunca paga',0.5,1,No,No
'Persona natural',134.34,43.59,0,0,'Con retraso',0,1,Si,No
'Persona natural',134.28,0,44.1,1,'Nunca paga',0,1,No,No
'Persona natural',134.26,0,44.1,1,'Nunca paga',0.5,1,No,No
'Persona natural',134.24,0,44.09,1,'Nunca paga',0.5,1,No,No
'Persona natural',134.22,0,44.09,1,'Nunca paga',0.5,1,No,No
'Persona natural',134.21,0,44.09,1,'Nunca paga',0.5,1,No,No
'Persona natural',134.06,0,44.05,1,'Nunca paga',0,1,No,No
'Persona natural',134.03,33.51,0,0,'Con retraso',0,0,Si,No
'Persona natural',134.02,0,44.04,1,'Nunca paga',0.5,1,No,No
'Persona natural',133.97,0,44.03,1,'Nunca paga',0.5,1,No,No
'Persona natural',133.95,43.49,0,0,'Con retraso',0,1,Si,No
'Persona natural',133.67,0,43.95,1,'Nunca paga',0.5,1,No,No
'Persona natural',133.57,0,43.93,1,'Nunca paga',0,1,No,No
'Persona natural',133.57,0,43.93,1,'Nunca paga',0.5,1,No,No
'Persona natural',133.56,0,43.92,1,'Nunca paga',0.5,1,No,No
'Persona natural',133.5,0,43.91,1,'Nunca paga',0.5,1,No,No
'Persona natural',133.46,0,43.9,1,'Nunca paga',0.5,1,No,No
'Persona natural',133.31,0,43.86,1,'Nunca paga',0,1,No,No
'Persona natural',133.24,0,43.84,1,'Nunca paga',0,1,No,No
'Persona natural',132.99,0,43.78,1,'Nunca paga',0.5,1,No,No
'Persona natural',132.95,0,43.77,1,'Nunca paga',0.5,1,No,No
'Persona natural',132.88,0,43.75,1,'Nunca paga',0.5,1,No,No
'Persona natural',132.72,0,43.71,1,'Nunca paga',0,1,No,No
'Persona natural',132.62,0,43.69,1,'Nunca paga',0,1,No,No
'Persona natural',132.4,0,43.63,1,'Nunca paga',0.5,1,No,No
'Persona natural',132.35,0,43.62,1,'Nunca paga',0.5,1,No,No
'Persona natural',132.27,43.07,0,0,'Con retraso',0,1,Si,No
'Persona natural',132.22,0,43.59,1,'Nunca paga',0.5,1,No,No
'Persona natural',132.15,0,43.57,1,'Nunca paga',0,1,No,No
'Persona natural',131.98,0,0,0,'Nunca paga',0.5,0,No,No
'Persona natural',131.96,0,43.51,1,'Nunca paga',0.5,1,No,No
'Persona natural',131.88,0,43.49,1,'Nunca paga',0,1,No,No
'Persona natural',131.85,45,0,0,'Con retraso',0,1,Si,No
'Persona natural',131.75,0,43.46,1,'Nunca paga',0.5,1,No,No
'Persona natural',131.73,0,43.46,1,'Nunca paga',0.5,1,No,No
'Persona natural',131.4,0,43.37,1,'Nunca paga',0.5,1,No,No
'Persona natural',131.37,0,43.37,1,'Nunca paga',0.5,1,No,No
'Persona natural',131.08,0,43.29,1,'Nunca paga',0.5,1,No,No
'Persona natural',131.03,32.76,0,0,'Con retraso',0,0,Si,No
'Persona natural',130.99,0,43.27,1,'Nunca paga',0.5,1,No,No
'Persona natural',130.92,0,43.25,1,'Nunca paga',0.5,1,No,No
'Persona natural',130.88,0,43.24,1,'Nunca paga',0.5,1,No,No
'Persona natural',130.81,0,43.23,1,'Nunca paga',0.5,1,No,No
'Persona natural',130.79,0,43.22,1,'Nunca paga',0.5,1,No,No
'Persona natural',130.77,0,43.22,1,'Nunca paga',0,1,No,No
'Persona natural',130.63,0,43.18,1,'Nunca paga',0.5,1,No,No
'Persona natural',130.61,42.66,0,0,'Con retraso',0,1,Si,No
'Persona natural',130.6,0,43.17,1,'Nunca paga',0.5,1,No,No
'Persona natural',130.51,42.63,0,0,'Con retraso',0,1,Si,No
'Persona natural',130.51,0,43.15,1,'Nunca paga',0.5,1,No,No
'Persona natural',130.49,0,43.15,1,'Nunca paga',0.5,1,No,No
'Persona natural',130.27,0,43.09,1,'Nunca paga',0.5,1,No,No
'Persona natural',130.19,0,43.07,1,'Nunca paga',0,1,No,No
'Persona natural',130.09,0,43.05,1,'Nunca paga',0,1,No,No
'Persona natural',130.04,0,43.03,1,'Nunca paga',0,1,No,No
'Persona natural',129.88,0,42.99,1,'Nunca paga',0.5,1,No,No
'Persona natural',129.87,0,42.99,1,'Nunca paga',0.5,1,No,No
'Persona natural',129.74,32.44,0,0,'Con retraso',0,0,Si,No
'Persona natural',129.72,0,42.95,1,'Nunca paga',0,1,No,No
'Persona natural',129.4,0,42.86,1,'Nunca paga',0.5,1,No,No
'Persona natural',129.2,42.3,0,0,'Con retraso',0,1,Si,No
'Persona natural',129.11,0,42.79,1,'Nunca paga',0.5,1,No,No
'Persona natural',129.1,0,42.79,1,'Nunca paga',0.5,1,No,No
'Persona natural',129.08,0,42.78,1,'Nunca paga',0.5,1,No,No
'Persona natural',129.04,0,42.77,1,'Nunca paga',0.5,1,No,No
'Persona natural',129.03,0,42.77,1,'Nunca paga',0,1,No,No
'Persona natural',129.02,0,0,0,'Nunca paga',0.5,0,No,No
'Persona natural',128.8,0,42.71,1,'Nunca paga',0,1,No,No
'Persona natural',128.74,0,42.7,1,'Nunca paga',0.5,1,No,No
'Persona natural',128.65,0,42.68,1,'Nunca paga',0.5,1,No,No
'Persona natural',128.59,0,0,0,'Nunca paga',0.5,0,No,No
'Persona natural',128.49,0,42.64,1,'Nunca paga',0.5,1,No,No
'Persona natural',128.49,42.13,0,0,'Con retraso',0,1,Si,No
'Persona natural',128.39,0,42.61,1,'Nunca paga',0.5,1,No,No
'Persona natural',128.28,0,42.58,1,'Nunca paga',0.5,1,No,No
'Persona natural',128.18,0,42.56,1,'Nunca paga',0.5,1,No,No
'Persona natural',128.18,0,42.56,1,'Nunca paga',0,1,No,No
'Persona natural',128.12,42.03,0,0,'Con retraso',0,1,Si,No
'Persona natural',128.05,0,42.53,1,'Nunca paga',0.5,1,No,No
'Persona natural',127.95,0,42.5,1,'Nunca paga',0.5,1,No,No
'Persona natural',127.89,0,42.49,1,'Nunca paga',0.5,1,No,No
'Persona natural',127.88,0,42.48,1,'Nunca paga',0,1,No,No
'Persona natural',127.79,0,42.46,1,'Nunca paga',0.5,1,No,No
'Persona natural',127.76,41.94,0,0,'Con retraso',0,1,Si,No
'Persona natural',127.75,0,42.45,1,'Nunca paga',0.5,1,No,No
'Persona natural',127.7,0,42.44,1,'Nunca paga',0.5,1,No,No
'Persona natural',127.69,0,42.44,1,'Nunca paga',0.5,1,No,No
'Persona natural',127.54,41.89,0,0,'Con retraso',0,1,Si,No
'Persona natural',127.51,0,42.39,1,'Nunca paga',0,1,No,No
'Persona natural',127.46,0,42.38,1,'Nunca paga',0.5,1,No,No
'Persona natural',127.44,0,42.37,1,'Nunca paga',0,1,No,No
'Persona natural',127.39,0,42.36,1,'Nunca paga',0.5,1,No,No
'Persona natural',127.35,0,42.35,1,'Nunca paga',0.5,1,No,No
'Persona natural',127.27,0,42.33,1,'Nunca paga',0.5,1,No,No
'Persona natural',127.23,0,42.32,1,'Nunca paga',0,1,No,No
'Persona natural',127.15,0,42.3,1,'Nunca paga',0,1,No,No
'Persona natural',127.08,0,42.28,1,'Nunca paga',0.5,1,No,No
'Persona natural',127.05,0,42.28,1,'Nunca paga',0.5,1,No,No
'Persona natural',126.88,0,42.22,1,'Nunca paga',0,1,No,No
'Persona natural',126.83,0,42.21,1,'Nunca paga',0.5,1,No,No
'Persona natural',126.82,0,42.21,1,'Nunca paga',0,1,No,No
'Persona natural',126.79,0,42.2,1,'Nunca paga',0.5,1,No,No
'Persona natural',126.65,0,42.17,1,'Nunca paga',0.5,1,No,No
'Persona natural',126.65,41.67,0,0,'Con retraso',0,1,Si,No
'Persona natural',126.64,0,42.16,1,'Nunca paga',0.5,1,No,No
'Persona natural',126.59,41.65,0,0,'Con retraso',0,1,Si,No
'Persona natural',126.52,0,0,0,'Nunca paga',0,0,No,No
'Persona natural',126.45,41.62,0,0,'Con retraso',0,1,Si,No
'Persona natural',126.44,0,42.11,1,'Nunca paga',0.5,1,No,No
'Persona natural',126.38,0,42.1,1,'Nunca paga',0,1,No,No
'Persona natural',126.33,0,42.09,1,'Nunca paga',0,1,No,No
'Persona natural',126.31,0,42.08,1,'Nunca paga',0.5,1,No,No
'Persona natural',126.25,0,42.07,1,'Nunca paga',0.5,1,No,No
'Persona natural',126.23,41.56,0,0,'Con retraso',0,1,Si,No
'Persona natural',126.21,0,42.06,1,'Nunca paga',0,1,No,No
'Persona natural',126.16,0,42.04,1,'Nunca paga',0.5,1,No,No
'Persona natural',126.14,0,42.04,1,'Nunca paga',0,1,No,No
'Persona natural',126.13,41.54,0,0,'Con retraso',0,1,Si,No
'Persona natural',126.06,0,42.02,1,'Nunca paga',0,1,No,No
'Persona natural',126.04,0,42.01,1,'Nunca paga',0,0,No,No
'Persona natural',125.86,0,41.97,1,'Nunca paga',0,1,No,No
'Persona natural',125.79,0,0,0,'Nunca paga',0.5,0,No,No
'Persona natural',125.79,0,0,0,'Nunca paga',0,0,No,No
'Persona natural',125.79,0,41.95,1,'Nunca paga',0,1,No,No
'Persona natural',125.66,0,41.92,1,'Nunca paga',0,1,No,No
'Persona natural',125.63,0,41.91,1,'Nunca paga',0,1,No,No
'Persona natural',125.62,0,41.91,1,'Nunca paga',0.5,1,No,No
'Persona natural',125.56,41.39,0,0,'Con retraso',0,1,Si,No
'Persona natural',125.55,0,41.89,1,'Nunca paga',0.5,1,No,No
'Persona natural',125.53,0,41.89,1,'Nunca paga',0.5,1,No,No
'Persona natural',125.52,0,41.88,1,'Nunca paga',0.5,1,No,No
'Persona natural',125.33,0,41.84,1,'Nunca paga',0.5,1,No,No
'Persona natural',125.23,0,41.81,1,'Nunca paga',0.5,1,No,No
'Persona natural',125.16,0,41.79,1,'Nunca paga',0,1,No,No
'Persona natural',125.14,41.29,0,0,'Con retraso',0,1,Si,No
'Persona natural',125.09,0,41.78,1,'Nunca paga',0.5,1,No,No
'Persona natural',125.02,0,41.76,1,'Nunca paga',0.5,1,No,No
'Persona natural',125.02,0,41.76,1,'Nunca paga',0,1,No,No
'Persona natural',124.98,41.25,0,0,'Con retraso',0,1,Si,No
'Persona natural',124.73,0,41.69,1,'Nunca paga',0.5,1,No,No
'Persona natural',124.69,0,41.68,1,'Nunca paga',0,1,No,No
'Persona natural',124.65,0,41.67,1,'Nunca paga',0.5,1,No,No
'Persona natural',124.63,0,41.66,1,'Nunca paga',0.5,1,No,No
'Persona natural',124.57,0,41.65,1,'Nunca paga',0,1,No,No
'Persona natural',124.57,41.15,0,0,'Con retraso',0,1,Si,No
'Persona natural',124.56,0,41.64,1,'Nunca paga',0.5,1,No,No
'Persona natural',124.47,0,41.61,1,'Nunca paga',0.5,1,No,No
'Persona natural',124.45,0,41.61,1,'Nunca paga',0.5,1,No,No
'Persona natural',124.42,0,41.6,1,'Nunca paga',0.5,1,No,No
'Persona natural',124.4,0,41.59,1,'Nunca paga',0,1,No,No
'Persona natural',124.4,0,41.59,1,'Nunca paga',0.5,1,No,No
'Persona natural',124.28,0,0,0,'Nunca paga',0,0,No,No
'Persona natural',124.16,0,41.53,1,'Nunca paga',0,1,No,No
'Persona natural',123.98,0,41.49,1,'Nunca paga',0.5,1,No,No
'Persona natural',123.92,0,0,0,'Nunca paga',0,0,No,No
'Persona natural',123.92,0,41.47,1,'Nunca paga',0.5,1,No,No
'Persona natural',123.88,0,41.46,1,'Nunca paga',0,1,No,No
'Persona natural',123.74,0,41.43,1,'Nunca paga',0,1,No,No
'Persona natural',123.64,0,41.4,1,'Nunca paga',0.5,1,No,No
'Persona natural',123.47,0,41.36,1,'Nunca paga',0.5,1,No,No
'Persona natural',123.39,0,41.34,1,'Nunca paga',0,1,No,No
'Persona natural',123.36,0,41.33,1,'Nunca paga',0.5,1,No,No
'Persona natural',123.3,0,41.32,1,'Nunca paga',0.5,1,No,No
'Persona natural',123.29,0,41.32,1,'Nunca paga',0,1,No,No
'Persona natural',123.26,0,41.31,1,'Nunca paga',0.5,1,No,No
'Persona natural',123.25,40.82,0,0,'Con retraso',0,1,Si,No
'Persona natural',123.23,0,41.3,1,'Nunca paga',0,1,No,No
'Persona natural',123.23,40.81,0,0,'Con retraso',0,1,Si,No
'Persona natural',123.22,0,41.3,1,'Nunca paga',0.5,1,No,No
'Persona natural',123.15,0,41.28,1,'Nunca paga',0.5,1,No,No
'Persona natural',123.11,40.78,0,0,'Con retraso',0,1,Si,No
'Persona natural',123.08,0,41.26,1,'Nunca paga',0.5,1,No,No
'Persona natural',123.07,0,41.26,1,'Nunca paga',0.5,1,No,No
'Persona natural',123.03,40.76,0,0,'Con retraso',0,1,Si,No
'Persona natural',122.97,0,41.24,1,'Nunca paga',0.5,1,No,No
'Persona natural',122.72,0,41.17,1,'Nunca paga',0.5,1,No,No
'Persona natural',122.5,0,41.12,1,'Nunca paga',0.5,1,No,No
'Persona natural',122.45,0,41.11,1,'Nunca paga',0.5,1,No,No
'Persona natural',122.34,40.59,0,0,'Con retraso',0,1,Si,No
'Persona natural',122.34,0,41.08,1,'Nunca paga',0,1,No,No
'Persona natural',122.32,0,41.07,1,'Nunca paga',0.5,1,No,No
'Persona natural',122.25,40.57,0,0,'Con retraso',0,1,Si,No
'Persona natural',122.23,0,41.05,1,'Nunca paga',0,1,No,No
'Persona natural',122.18,0,41.04,1,'Nunca paga',0.5,1,No,No
'Persona natural',122.12,40.53,0,0,'Con retraso',0,1,Si,No
'Persona natural',121.99,0,40.98,1,'Nunca paga',0.5,1,No,No
'Persona natural',121.92,0,40.96,1,'Nunca paga',0.5,1,No,No
'Persona natural',121.91,0,40.96,1,'Nunca paga',0.5,1,No,No
'Persona natural',121.83,0,40.94,1,'Nunca paga',0.5,1,No,No
'Persona natural',121.75,40.44,0,0,'Con retraso',0,1,Si,No
'Persona natural',121.73,0,40.92,1,'Nunca paga',0.5,1,No,No
'Persona natural',121.72,0,40.91,1,'Nunca paga',0.5,1,No,No
'Persona natural',121.71,0,40.91,1,'Nunca paga',0,1,No,No
'Persona natural',121.7,0,40.91,1,'Nunca paga',0.5,1,No,No
'Persona natural',121.46,0,40.85,1,'Nunca paga',0.5,1,No,No
'Persona natural',121.44,0,40.84,1,'Nunca paga',0,1,No,No
'Persona natural',121.43,0,40.84,1,'Nunca paga',0,1,No,No
'Persona natural',121.37,0,40.83,1,'Nunca paga',0.5,1,No,No
'Persona natural',121.3,0,40.81,1,'Nunca paga',0,1,No,No
'Persona natural',121.11,0,40.76,1,'Nunca paga',0.5,1,No,No
'Persona natural',121.09,0,40.76,1,'Nunca paga',0,1,No,No
'Persona natural',121.08,0,40.75,1,'Nunca paga',0.5,1,No,No
'Persona natural',121.05,0,40.75,1,'Nunca paga',0.5,1,No,No
'Persona natural',120.92,0,40.71,1,'Nunca paga',0.5,1,No,No
'Persona natural',120.87,0,40.7,1,'Nunca paga',0.5,1,No,No
'Persona natural',120.69,0,40.66,1,'Nunca paga',0.5,1,No,No
'Persona natural',120.61,0,40.64,1,'Nunca paga',0,1,No,No
'Persona natural',120.61,0,40.64,1,'Nunca paga',0,0,No,No
'Persona natural',120.55,0,40.62,1,'Nunca paga',0.5,1,No,No
'Persona natural',120.47,0,40.6,1,'Nunca paga',0.5,1,No,No
'Persona natural',120.46,0,40.6,1,'Nunca paga',0.5,1,No,No
'Persona natural',120.4,0,40.58,1,'Nunca paga',0.5,1,No,No
'Persona natural',120.37,0,40.58,1,'Nunca paga',0.5,1,No,No
'Persona natural',120.36,0,40.57,1,'Nunca paga',0.5,1,No,No
'Persona natural',120.31,0,40.56,1,'Nunca paga',0.5,1,No,No
'Persona natural',120.24,0,40.54,1,'Nunca paga',0.5,1,No,No
'Persona natural',120.21,0,40.54,1,'Nunca paga',0.5,1,No,No
'Persona natural',120.19,0,40.53,1,'Nunca paga',0.5,1,No,No
'Persona natural',120.16,0,40.52,1,'Nunca paga',0.5,1,No,No
'Persona natural',120.14,0,40.52,1,'Nunca paga',0.5,1,No,No
'Persona natural',120.1,0,0,0,'Nunca paga',0.5,0,No,No
'Persona natural',120.06,0,40.5,1,'Nunca paga',0.5,1,No,No
'Persona natural',120,0,40.48,1,'Nunca paga',0.5,1,No,No
'Persona natural',119.97,0,40.48,1,'Nunca paga',0.5,1,No,No
'Persona natural',119.86,0,40.45,1,'Nunca paga',0,0,No,No
'Persona natural',119.8,0,40.43,1,'Nunca paga',0.5,1,No,No
'Persona natural',119.77,0,40.43,1,'Nunca paga',0.5,1,No,No
'Persona natural',119.76,0,40.42,1,'Nunca paga',0.5,1,No,No
'Persona natural',119.74,39.94,0,0,'Con retraso',0,1,Si,No
'Persona natural',119.7,0,0,0,'Nunca paga',0.5,0,No,No
'Persona natural',119.68,0,40.4,1,'Nunca paga',0.5,1,No,No
'Persona natural',119.68,0,40.4,1,'Nunca paga',0,1,No,No
'Persona natural',119.6,0,40.38,1,'Nunca paga',0.5,1,No,No
'Persona natural',119.57,0,40.38,1,'Nunca paga',0.5,1,No,No
'Persona natural',119.43,0,40.33,1,'Nunca paga',0,1,No,No
'Persona natural',119.4,0,40.32,1,'Nunca paga',0.5,1,No,No
'Persona natural',119.34,0,40.31,1,'Nunca paga',0.5,1,No,No
'Persona natural',119.22,0,40.28,1,'Nunca paga',0.5,1,No,No
'Persona natural',119.1,0,40.25,1,'Nunca paga',0.5,1,No,No
'Persona natural',119.1,0,40.25,1,'Nunca paga',0,1,No,No
'Persona natural',119.04,0,40.23,1,'Nunca paga',0.5,1,No,No
'Persona natural',119.01,0,40.23,1,'Nunca paga',0.5,1,No,No
'Persona natural',119,0,40.22,1,'Nunca paga',0.5,1,No,No
'Persona natural',118.99,0,40.22,1,'Nunca paga',0.5,1,No,No
'Persona natural',118.74,0,40.16,1,'Nunca paga',0.5,1,No,No
'Persona natural',118.7,0,40.15,1,'Nunca paga',0.5,1,No,No
'Persona natural',118.63,0,40.13,1,'Nunca paga',0.5,1,No,No
'Persona natural',118.62,0,40.13,1,'Nunca paga',0.5,1,No,No
'Persona natural',118.6,0,40.12,1,'Nunca paga',0.5,1,No,No
'Persona natural',118.33,0,40.06,1,'Nunca paga',0.5,1,No,No
'Persona natural',118.31,0,40.05,1,'Nunca paga',0.5,1,No,No
'Persona natural',118.18,0,40.02,1,'Nunca paga',0.5,1,No,No
'Persona natural',118.08,0,39.99,1,'Nunca paga',0,0,No,No
'Persona natural',118.07,0,39.99,1,'Nunca paga',0,1,No,No
'Persona natural',118.05,0,39.99,1,'Nunca paga',0.5,1,No,No
'Persona natural',118.02,0,39.98,1,'Nunca paga',0.5,1,No,No
'Persona natural',117.97,0,39.97,1,'Nunca paga',0.5,1,No,No
'Persona natural',117.92,0,39.95,1,'Nunca paga',0.5,1,No,No
'Persona natural',117.84,0,39.93,1,'Nunca paga',0.5,1,No,No
'Persona natural',117.71,0,39.9,1,'Nunca paga',0,1,No,No
'Persona natural',117.71,0,39.9,1,'Nunca paga',0.5,1,No,No
'Persona natural',117.43,0,39.83,1,'Nunca paga',0.5,1,No,No
'Persona natural',117.37,0,39.82,1,'Nunca paga',0,1,No,No
'Persona natural',117.36,0,39.81,1,'Nunca paga',0,1,No,No
'Persona natural',117.2,0,39.77,1,'Nunca paga',0.5,1,No,No
'Persona natural',117.12,0,39.75,1,'Nunca paga',0.5,1,No,No
'Persona natural',117.09,0,39.75,1,'Nunca paga',0.5,1,No,No
'Persona natural',117.01,0,39.73,1,'Nunca paga',0,1,No,No
'Persona natural',117,0,39.72,1,'Nunca paga',0.5,1,No,No
'Persona natural',116.9,0,39.69,1,'Nunca paga',0,1,No,No
'Persona natural',116.81,0,39.67,1,'Nunca paga',0,1,No,No
'Persona natural',116.78,0,39.66,1,'Nunca paga',0.5,1,No,No
'Persona natural',116.75,39.19,0,0,'Con retraso',0,1,Si,No
'Persona natural',116.66,0,39.63,1,'Nunca paga',0,1,No,No
'Persona natural',116.65,0,39.63,1,'Nunca paga',0,0,No,No
'Persona natural',116.64,0,39.62,1,'Nunca paga',0.5,1,No,No
'Persona natural',116.59,0,39.61,1,'Nunca paga',0.5,1,No,No
'Persona natural',116.47,0,39.58,1,'Nunca paga',0.5,1,No,No
'Persona natural',116.46,0,39.58,1,'Nunca paga',0.5,1,No,No
'Persona natural',116.43,0,39.57,1,'Nunca paga',0.5,1,No,No
'Persona natural',116.4,0,39.56,1,'Nunca paga',0,0,No,No
'Persona natural',116.38,0,39.56,1,'Nunca paga',0.5,1,No,No
'Persona natural',116.38,0,39.56,1,'Nunca paga',0,0,No,No
'Persona natural',116.28,0,39.53,1,'Nunca paga',0.5,1,No,No
'Persona natural',116.22,0,39.52,1,'Nunca paga',0.5,1,No,No
'Persona natural',116.13,0,39.5,1,'Nunca paga',0.5,1,No,No
'Persona natural',116.09,0,0,0,'Nunca paga',0,0,No,No
'Persona natural',115.95,0,39.45,1,'Nunca paga',0.5,1,No,No
'Persona natural',115.94,0,39.45,1,'Nunca paga',0.5,1,No,No
'Persona natural',115.72,0,39.39,1,'Nunca paga',0,1,No,No
'Persona natural',115.56,0,39.35,1,'Nunca paga',0,1,No,No
'Persona natural',115.52,0,39.34,1,'Nunca paga',0.5,1,No,No
'Persona natural',115.48,0,39.33,1,'Nunca paga',0.5,1,No,No
'Persona natural',115.43,0,39.32,1,'Nunca paga',0.5,1,No,No
'Persona natural',115.42,0,39.32,1,'Nunca paga',0.5,1,No,No
'Persona natural',115.38,0,39.31,1,'Nunca paga',0.5,1,No,No
'Persona natural',115.34,0,39.3,1,'Nunca paga',0.5,1,No,No
'Persona natural',115.25,38.82,0,0,'Con retraso',0,1,Si,No
'Persona natural',115.23,0,39.27,1,'Nunca paga',0.5,1,No,No
'Persona natural',115.18,0,39.26,1,'Nunca paga',0.5,1,No,No
'Persona natural',115.1,0,0,0,'Nunca paga',0.5,0,No,No
'Persona natural',115.07,0,39.23,1,'Nunca paga',0,1,No,No
'Persona natural',115.06,0,39.23,1,'Nunca paga',0,1,No,No
'Persona natural',115.04,0,39.22,1,'Nunca paga',0.5,1,No,No
'Persona natural',115.03,0,39.22,1,'Nunca paga',0.5,1,No,No
'Persona natural',115.02,0,39.22,1,'Nunca paga',0,1,No,No
'Persona natural',115.01,0,39.22,1,'Nunca paga',0.5,1,No,No
'Persona natural',115,0,39.21,1,'Nunca paga',0.5,1,No,No
'Persona natural',114.99,0,39.21,1,'Nunca paga',0.5,1,No,No
'Persona natural',114.97,38.75,0,0,'Con retraso',0,1,Si,No
'Persona natural',114.92,0,39.19,1,'Nunca paga',0.5,1,No,No
'Persona natural',114.86,0,39.18,1,'Nunca paga',0,1,No,No
'Persona natural',114.85,0,39.18,1,'Nunca paga',0,0,No,No
'Persona natural',114.81,0,39.17,1,'Nunca paga',0.5,1,No,No
'Persona natural',114.75,0,39.15,1,'Nunca paga',0.5,1,No,No
'Persona natural',114.74,0,39.15,1,'Nunca paga',0.5,1,No,No
'Persona natural',114.73,0,39.15,1,'Nunca paga',0.5,1,No,No
'Persona natural',114.68,0,39.13,1,'Nunca paga',0,1,No,No
'Persona natural',114.6,0,39.11,1,'Nunca paga',0.5,1,No,No
'Persona natural',114.59,0,39.11,1,'Nunca paga',0.5,1,No,No
'Persona natural',114.54,38.64,0,0,'Con retraso',0,1,Si,No
'Persona natural',114.49,0,39.09,1,'Nunca paga',0.5,1,No,No
'Persona natural',114.46,0,39.08,1,'Nunca paga',0.5,1,No,No
'Persona natural',114.42,38.61,0,0,'Con retraso',0,1,Si,No
'Persona natural',114.37,0,0,0,'Nunca paga',0,0,No,No
'Persona natural',114.31,0,39.03,1,'Nunca paga',0.4,1,No,No
'Persona natural',114.3,0,39.03,1,'Nunca paga',0,1,No,No
'Persona natural',114.29,0,39.03,1,'Nunca paga',0.4,1,No,No
'Persona natural',114.25,0,39.02,1,'Nunca paga',0.4,1,No,No
'Persona natural',114.22,38.56,0,0,'Con retraso',0,1,Si,No
'Persona natural',114.2,0,39,1,'Nunca paga',0.4,1,No,No
'Persona natural',114.18,0,39,1,'Nunca paga',0,1,No,No
'Persona natural',114.17,0,39,1,'Nunca paga',0.4,1,No,No
'Persona natural',114.13,38.54,0,0,'Con retraso',0,1,Si,No
'Persona natural',114.1,0,38.98,1,'Nunca paga',0.4,1,No,No
'Persona natural',114.05,0,0,0,'Nunca paga',0,0,No,No
'Persona natural',113.99,0,38.95,1,'Nunca paga',0.4,1,No,No
'Persona natural',113.95,38.49,0,0,'Con retraso',0,1,Si,No
'Persona natural',113.93,0,38.94,1,'Nunca paga',0.4,1,No,No
'Persona natural',113.91,0,38.93,1,'Nunca paga',0,1,No,No
'Persona natural',113.89,38.48,0,0,'Con retraso',0,1,Si,No
'Persona natural',113.76,0,38.89,1,'Nunca paga',0.4,1,No,No
'Persona natural',113.71,0,38.88,1,'Nunca paga',0.4,1,No,No
'Persona natural',113.64,0,38.86,1,'Nunca paga',0,1,No,No
'Persona natural',113.59,0,38.85,1,'Nunca paga',0,1,No,No
'Persona natural',113.58,0,38.85,1,'Nunca paga',0.4,1,No,No
'Persona natural',113.57,0,38.85,1,'Nunca paga',0,0,No,No
'Persona natural',113.55,38.39,0,0,'Con retraso',0,1,Si,No
'Persona natural',113.55,0,38.84,1,'Nunca paga',0.4,1,No,No
'Persona natural',113.54,0,38.84,1,'Nunca paga',0.4,1,No,No
'Persona natural',113.53,0,38.84,1,'Nunca paga',0.4,1,No,No
'Persona natural',113.48,0,38.82,1,'Nunca paga',0.4,1,No,No
'Persona natural',113.47,0,38.82,1,'Nunca paga',0,1,No,No
'Persona natural',113.45,0,38.82,1,'Nunca paga',0.4,1,No,No
'Persona natural',113.44,0,38.81,1,'Nunca paga',0.4,1,No,No
'Persona natural',113.38,0,38.8,1,'Nunca paga',0.4,1,No,No
'Persona natural',113.31,0,38.78,1,'Nunca paga',0,1,No,No
'Persona natural',113.29,38.33,0,0,'Con retraso',0,1,Si,No
'Persona natural',113.24,0,38.76,1,'Nunca paga',0.4,1,No,No
'Persona natural',112.96,0,38.69,1,'Nunca paga',0,1,No,No
'Persona natural',112.89,0,38.68,1,'Nunca paga',0,1,No,No
'Persona natural',112.87,0,38.67,1,'Nunca paga',0.4,1,No,No
'Persona natural',112.85,0,38.67,1,'Nunca paga',0.4,1,No,No
'Persona natural',112.63,0,38.61,1,'Nunca paga',0.4,1,No,No
'Persona natural',112.5,0,38.58,1,'Nunca paga',0.4,1,No,No
'Persona natural',112.49,0,38.58,1,'Nunca paga',0.4,1,No,No
'Persona natural',112.48,0,38.57,1,'Nunca paga',0.4,1,No,No
'Persona natural',112.25,0,38.52,1,'Nunca paga',0,1,No,No
'Persona natural',112.21,0,0,0,'Nunca paga',0,0,No,No
'Persona natural',112.18,0,38.5,1,'Nunca paga',0,1,No,No
'Persona natural',112.16,0,38.49,1,'Nunca paga',0.4,1,No,No
'Persona natural',112.15,0,38.49,1,'Nunca paga',0.4,1,No,No
'Persona natural',112.12,0,38.48,1,'Nunca paga',0,1,No,No
'Persona natural',112.05,38.02,0,0,'Con retraso',0,1,Si,No
'Persona natural',112.04,0,38.46,1,'Nunca paga',0.4,1,No,No
'Persona natural',112.01,0,38.46,1,'Nunca paga',0.4,1,No,No
'Persona natural',112,0,38.45,1,'Nunca paga',0.4,1,No,No
'Persona natural',111.96,0,38.44,1,'Nunca paga',0.4,1,No,No
'Persona natural',111.8,37.95,0,0,'Con retraso',0,1,Si,No
'Persona natural',111.66,0,38.36,1,'Nunca paga',0.4,1,No,No
'Persona natural',111.63,0,38.35,1,'Nunca paga',0.4,1,No,No
'Persona natural',111.62,0,38.35,1,'Nunca paga',0,1,No,No
'Persona natural',111.52,0,38.32,1,'Nunca paga',0,1,No,No
'Persona natural',111.46,37.87,0,0,'Con retraso',0,1,Si,No
'Persona natural',111.44,0,0,0,'Nunca paga',0.4,0,No,No
'Persona natural',111.43,0,38.3,1,'Nunca paga',0.4,1,No,No
'Persona natural',111.37,0,38.29,1,'Nunca paga',0.4,1,No,No
'Persona natural',111.31,37.83,0,0,'Con retraso',0,1,Si,No
'Persona natural',111.27,0,38.26,1,'Nunca paga',0,1,No,No
'Persona natural',111.09,37.78,0,0,'Con retraso',0,1,Si,No
'Persona natural',111.07,0,38.21,1,'Nunca paga',0,1,No,No
'Persona natural',111.05,0,38.21,1,'Nunca paga',0.4,1,No,No
'Persona natural',110.97,0,38.19,1,'Nunca paga',0.4,1,No,No
'Persona natural',110.89,0,38.17,1,'Nunca paga',0.4,1,No,No
'Persona natural',110.87,0,38.16,1,'Nunca paga',0,1,No,No
'Persona natural',110.75,0,38.13,1,'Nunca paga',0.4,1,No,No
'Persona natural',110.7,0,38.12,1,'Nunca paga',0.4,1,No,No
'Persona natural',110.59,0,38.09,1,'Nunca paga',0.4,1,No,No
'Persona natural',110.56,0,38.08,1,'Nunca paga',0.4,1,No,No
'Persona natural',110.44,0,38.05,1,'Nunca paga',0.4,1,No,No
'Persona natural',110.26,0,38.01,1,'Nunca paga',0.4,1,No,No
'Persona natural',110.25,0,0,0,'Nunca paga',0.4,0,No,No
'Persona natural',110.14,0,37.98,1,'Nunca paga',0.4,1,No,No
'Persona natural',110.13,0,37.98,1,'Nunca paga',0,1,No,No
'Persona natural',110.01,0,37.95,1,'Nunca paga',0.4,1,No,No
'Persona natural',110,0,37.94,1,'Nunca paga',0,1,No,No
'Persona natural',109.98,0,37.94,1,'Nunca paga',0.4,1,No,No
'Persona natural',109.97,0,37.94,1,'Nunca paga',0.4,1,No,No
'Persona natural',109.82,0,37.9,1,'Nunca paga',0,1,No,No
'Persona natural',109.79,0,37.89,1,'Nunca paga',0.4,1,No,No
'Persona natural',109.75,0,37.88,1,'Nunca paga',0,1,No,No
'Persona natural',109.74,0,37.88,1,'Nunca paga',0.4,1,No,No
'Persona natural',109.65,37.42,0,0,'Con retraso',0,1,Si,No
'Persona natural',109.52,0,37.82,1,'Nunca paga',0.4,1,No,No
'Persona natural',109.44,0,37.8,1,'Nunca paga',0.4,1,No,No
'Persona natural',109.4,0,37.78,1,'Nunca paga',0.4,1,No,No
'Persona natural',109.34,0,37.77,1,'Nunca paga',0.4,1,No,No
'Persona natural',109.31,0,0,0,'Nunca paga',0,0,No,No
'Persona natural',109.28,0,37.75,1,'Nunca paga',0.4,1,No,No
'Persona natural',109.25,0,37.75,1,'Nunca paga',0.4,1,No,No
'Persona natural',109.25,0,0,0,'Nunca paga',0.4,0,No,No
'Persona natural',109.24,0,37.74,1,'Nunca paga',0.4,1,No,No
'Persona natural',109.12,0,37.71,1,'Nunca paga',0.4,1,No,No
'Persona natural',109.01,0,37.69,1,'Nunca paga',0,1,No,No
'Persona natural',109,0,37.68,1,'Nunca paga',0.4,1,No,No
'Persona natural',108.86,0,37.65,1,'Nunca paga',0.4,1,No,No
'Persona natural',108.84,0,37.64,1,'Nunca paga',0,1,No,No
'Persona natural',108.8,37.2,0,0,'Con retraso',0,1,Si,No
'Persona natural',108.78,0,37.63,1,'Nunca paga',0.4,1,No,No
'Persona natural',108.74,0,37.62,1,'Nunca paga',0.4,1,No,No
'Persona natural',108.64,0,37.59,1,'Nunca paga',0,1,No,No
'Persona natural',108.6,0,37.58,1,'Nunca paga',0,1,No,No
'Persona natural',108.51,0,37.56,1,'Nunca paga',0.4,1,No,No
'Persona natural',108.46,0,37.55,1,'Nunca paga',0.4,1,No,No
'Persona natural',108.43,0,0,0,'Nunca paga',0.4,0,No,No
'Persona natural',108.41,0,37.54,1,'Nunca paga',0.4,1,No,No
'Persona natural',108.38,0,37.53,1,'Nunca paga',0,1,No,No
'Persona natural',108.29,0,0,0,'Nunca paga',0,0,No,No
'Persona natural',108.18,0,37.48,1,'Nunca paga',0.4,1,No,No
'Persona natural',108.15,0,37.47,1,'Nunca paga',0,1,No,No
'Persona natural',108.11,0,37.46,1,'Nunca paga',0.4,1,No,No
'Persona natural',108.1,0,37.46,1,'Nunca paga',0.4,1,No,No
'Persona natural',108.05,0,37.45,1,'Nunca paga',0.4,1,No,No
'Persona natural',108.02,0,37.44,1,'Nunca paga',0.4,1,No,No
'Persona natural',107.88,0,37.4,1,'Nunca paga',0.4,1,No,No
'Persona natural',107.87,0,37.4,1,'Nunca paga',0,0,No,No
'Persona natural',107.85,0,37.4,1,'Nunca paga',0.4,1,No,No
'Persona natural',107.82,0,37.39,1,'Nunca paga',0.4,1,No,No
'Persona natural',107.75,0,37.37,1,'Nunca paga',0.4,1,No,No
'Persona natural',107.73,0,37.37,1,'Nunca paga',0,1,No,No
'Persona natural',107.71,0,37.36,1,'Nunca paga',0.4,1,No,No
'Persona natural',107.7,0,37.36,1,'Nunca paga',0.4,1,No,No
'Persona natural',107.69,37.24,0,0,'Con retraso',0,1,Si,No
'Persona natural',107.68,0,37.35,1,'Nunca paga',0.4,1,No,No
'Persona natural',107.65,0,37.35,1,'Nunca paga',0,1,No,No
'Persona natural',107.56,0,37.32,1,'Nunca paga',0,1,No,No
'Persona natural',107.45,36.87,0,0,'Con retraso',0,1,Si,No
'Persona natural',107.44,0,37.29,1,'Nunca paga',0.4,1,No,No
'Persona natural',107.38,0,37.28,1,'Nunca paga',0,1,No,No
'Persona natural',107.34,0,37.27,1,'Nunca paga',0.4,1,No,No
'Persona natural',107.29,0,37.26,1,'Nunca paga',0.4,1,No,No
'Persona natural',107.25,0,37.25,1,'Nunca paga',0.4,1,No,No
'Persona natural',107.24,0,37.24,1,'Nunca paga',0.4,1,No,No
'Persona natural',107.22,0,37.24,1,'Nunca paga',0,1,No,No
'Persona natural',107.2,0,37.23,1,'Nunca paga',0,1,No,No
'Persona natural',107.17,0,37.23,1,'Nunca paga',0,1,No,No
'Persona natural',107.16,0,37.22,1,'Nunca paga',0.4,1,No,No
'Persona natural',107.11,0,37.21,1,'Nunca paga',0,1,No,No
'Persona natural',107.01,0,37.19,1,'Nunca paga',0.4,1,No,No
'Persona natural',106.99,36.75,0,0,'Con retraso',0,1,Si,No
'Persona natural',106.97,0,37.18,1,'Nunca paga',0.4,1,No,No
'Persona natural',106.91,0,37.16,1,'Nunca paga',0.4,1,No,No
'Persona natural',106.88,0,37.14,1,'Nunca paga',0.4,1,No,No
'Persona natural',106.83,0,37.13,1,'Nunca paga',0,1,No,No
'Persona natural',106.74,0,37.11,1,'Nunca paga',0.4,1,No,No
'Persona natural',106.73,0,37.11,1,'Nunca paga',0,1,No,No
'Persona natural',106.71,0,37.1,1,'Nunca paga',0.4,1,No,No
'Persona natural',106.61,0,37.08,1,'Nunca paga',0.4,1,No,No
'Persona natural',106.57,0,37.07,1,'Nunca paga',0,1,No,No
'Persona natural',106.54,0,37.06,1,'Nunca paga',0,1,No,No
'Persona natural',106.43,0,37.03,1,'Nunca paga',0.4,1,No,No
'Persona natural',106.4,0,37.02,1,'Nunca paga',0.4,1,No,No
'Persona natural',106.38,0,37.02,1,'Nunca paga',0.4,1,No,No
'Persona natural',106.34,0,37.01,1,'Nunca paga',0.4,1,No,No
'Persona natural',106.33,0,37.01,1,'Nunca paga',0.4,1,No,No
'Persona natural',106.27,36.57,0,0,'Con retraso',0,1,Si,No
'Persona natural',106.25,0,36.99,1,'Nunca paga',0.4,1,No,No
'Persona natural',106.22,0,36.98,1,'Nunca paga',0.4,1,No,No
'Persona natural',106.18,0,36.97,1,'Nunca paga',0.4,1,No,No
'Persona natural',106.15,0,36.96,1,'Nunca paga',0.4,1,No,No
'Persona natural',106.11,0,36.95,1,'Nunca paga',0.4,1,No,No
'Persona natural',106.09,0,36.95,1,'Nunca paga',0.4,1,No,No
'Persona natural',105.91,0,0,0,'Nunca paga',0,0,No,No
'Persona natural',105.86,36.47,0,0,'Con retraso',0,1,Si,No
'Persona natural',105.85,0,36.89,1,'Nunca paga',0.4,1,No,No
'Persona natural',105.79,0,36.87,1,'Nunca paga',0.4,1,No,No
'Persona natural',105.75,36.44,0,0,'Con retraso',0,1,Si,No
'Persona natural',105.74,0,36.86,1,'Nunca paga',0.4,1,No,No
'Persona natural',105.64,0,36.83,1,'Nunca paga',0.4,1,No,No
'Persona natural',105.6,0,36.82,1,'Nunca paga',0.4,1,No,No
'Persona natural',105.56,0,36.81,1,'Nunca paga',0,1,No,No
'Persona natural',105.53,0,36.81,1,'Nunca paga',0.4,1,No,No
'Persona natural',105.47,0,36.79,1,'Nunca paga',0,1,No,No
'Persona natural',105.44,0,36.78,1,'Nunca paga',0.4,1,No,No
'Persona natural',105.41,0,36.78,1,'Nunca paga',0.4,1,No,No
'Persona natural',105.39,0,36.77,1,'Nunca paga',0.4,1,No,No
'Persona natural',105.37,0,36.77,1,'Nunca paga',0.4,1,No,No
'Persona natural',105.33,0,36.76,1,'Nunca paga',0.4,1,No,No
'Persona natural',105.16,0,36.71,1,'Nunca paga',0,1,No,No
'Persona natural',105.09,0,36.7,1,'Nunca paga',0.4,1,No,No
'Persona natural',105.07,0,0,0,'Nunca paga',0.4,0,No,No
'Persona natural',105.01,0,36.68,1,'Nunca paga',0.4,1,No,No
'Persona natural',104.95,0,36.66,1,'Nunca paga',0.4,1,No,No
'Persona natural',104.79,36.2,0,0,'Con retraso',0,1,Si,No
'Persona natural',104.76,0,36.61,1,'Nunca paga',0.4,1,No,No
'Persona natural',104.72,0,36.6,1,'Nunca paga',0,1,No,No
'Persona natural',104.68,0,36.59,1,'Nunca paga',0.4,1,No,No
'Persona natural',104.51,36.43,0,0,'Con retraso',0,1,Si,No
'Persona natural',104.48,0,36.54,1,'Nunca paga',0.4,1,No,No
'Persona natural',104.47,0,36.54,1,'Nunca paga',0.4,1,No,No
'Persona natural',104.36,0,36.5,1,'Nunca paga',0.4,1,No,No
'Persona natural',104.33,0,36.5,1,'Nunca paga',0.4,1,No,No
'Persona natural',104.3,0,36.49,1,'Nunca paga',0,1,No,No
'Persona natural',104.22,0,36.47,1,'Nunca paga',0.4,1,No,No
'Persona natural',104.13,0,36.45,1,'Nunca paga',0,0,No,No
'Persona natural',104.04,0,36.42,1,'Nunca paga',0.4,1,No,No
'Persona natural',104.02,0,36.42,1,'Nunca paga',0.4,1,No,No
'Persona natural',104.01,0,36.42,1,'Nunca paga',0.4,1,No,No
'Persona natural',104.01,0,36.42,1,'Nunca paga',0,1,No,No
'Persona natural',104,0,36.41,1,'Nunca paga',0.4,1,No,No
'Persona natural',104,36,0,0,'Con retraso',0,1,Si,No
'Persona natural',103.9,0,36.39,1,'Nunca paga',0.4,1,No,No
'Persona natural',103.86,0,36.38,1,'Nunca paga',0.4,1,No,No
'Persona natural',103.79,0,36.36,1,'Nunca paga',0.4,1,No,No
'Persona natural',103.69,0,36.34,1,'Nunca paga',0,1,No,No
'Persona natural',103.63,0,36.32,1,'Nunca paga',0.4,1,No,No
'Persona natural',103.6,35.9,0,0,'Con retraso',0,1,Si,No
'Persona natural',103.48,0,36.28,1,'Nunca paga',0.4,1,No,No
'Persona natural',103.46,0,36.28,1,'Nunca paga',0.4,1,No,No
'Persona natural',103.45,0,36.28,1,'Nunca paga',0.4,1,No,No
'Persona natural',103.43,0,36.27,1,'Nunca paga',0.4,1,No,No
'Persona natural',103.38,36.16,0,0,'Con retraso',0,1,Si,No
'Persona natural',103.35,0,36.25,1,'Nunca paga',0.4,1,No,No
'Persona natural',103.34,0,36.25,1,'Nunca paga',0.4,1,No,No
'Persona natural',103.27,0,36.23,1,'Nunca paga',0,1,No,No
'Persona natural',103.27,0,36.23,1,'Nunca paga',0.4,1,No,No
'Persona natural',103.24,0,36.22,1,'Nunca paga',0.4,1,No,No
'Persona natural',103.15,0,36.2,1,'Nunca paga',0.4,1,No,No
'Persona natural',103.13,0,36.2,1,'Nunca paga',0,1,No,No
'Persona natural',103.1,0,36.19,1,'Nunca paga',0.4,1,No,No
'Persona natural',102.95,35.74,0,0,'Con retraso',0,1,Si,No
'Persona natural',102.95,0,36.15,1,'Nunca paga',0,1,No,No
'Persona natural',102.89,0,36.14,1,'Nunca paga',0.4,1,No,No
'Persona natural',102.84,0,36.12,1,'Nunca paga',0.4,1,No,No
'Persona natural',102.83,0,36.12,1,'Nunca paga',0.4,1,No,No
'Persona natural',102.82,0,36.12,1,'Nunca paga',0.4,1,No,No
'Persona natural',102.76,0,0,0,'Nunca paga',0,0,No,No
'Persona natural',102.76,0,36.1,1,'Nunca paga',0,1,No,No
'Persona natural',102.73,0,36.1,1,'Nunca paga',0.4,1,No,No
'Persona natural',102.7,0,36.09,1,'Nunca paga',0.4,1,No,No
'Persona natural',102.65,0,36.08,1,'Nunca paga',0.4,1,No,No
'Persona natural',102.63,0,36.07,1,'Nunca paga',0.4,1,No,No
'Persona natural',102.6,0,0,0,'Nunca paga',0,0,No,No
'Persona natural',102.56,0,36.05,1,'Nunca paga',0.4,1,No,No
'Persona natural',102.53,0,36.05,1,'Nunca paga',0.4,1,No,No
'Persona natural',102.51,0,36.04,1,'Nunca paga',0.4,1,No,No
'Persona natural',102.49,0,36.04,1,'Nunca paga',0.4,1,No,No
'Persona natural',102.36,0,36,1,'Nunca paga',0.4,1,No,No
'Persona natural',102.34,0,0,0,'Nunca paga',0.4,0,No,No
'Persona natural',102.32,0,35.99,1,'Nunca paga',0.4,1,No,No
'Persona natural',102.21,0,35.97,1,'Nunca paga',0.4,1,No,No
'Persona natural',102.08,0,35.93,1,'Nunca paga',0.4,1,No,No
'Persona natural',101.99,0,35.91,1,'Nunca paga',0.4,1,No,No
'Persona natural',101.92,0,35.89,1,'Nunca paga',0,1,No,No
'Persona natural',101.92,0,35.89,1,'Nunca paga',0.4,1,No,No
'Persona natural',101.87,0,35.87,1,'Nunca paga',0.4,1,No,No
'Persona natural',101.82,0,35.86,1,'Nunca paga',0.4,1,No,No
'Persona natural',101.77,0,35.85,1,'Nunca paga',0.4,1,No,No
'Persona natural',101.73,0,35.84,1,'Nunca paga',0,0,No,No
'Persona natural',101.6,0,35.8,1,'Nunca paga',0,1,No,No
'Persona natural',101.53,0,35.79,1,'Nunca paga',0.4,1,No,No
'Persona natural',101.51,0,35.78,1,'Nunca paga',0.4,1,No,No
'Persona natural',101.46,0,35.77,1,'Nunca paga',0,1,No,No
'Persona natural',101.45,0,35.77,1,'Nunca paga',0.4,1,No,No
'Persona natural',101.44,0,35.76,1,'Nunca paga',0,0,No,No
'Persona natural',101.3,0,35.73,1,'Nunca paga',0,0,No,No
'Persona natural',101.26,0,35.72,1,'Nunca paga',0.4,1,No,No
'Persona natural',101.22,0,35.71,1,'Nunca paga',0.4,1,No,No
'Persona natural',101.13,0,35.69,1,'Nunca paga',0,1,No,No
'Persona natural',101.12,35.28,0,0,'Con retraso',0,1,Si,No
'Persona natural',101.07,0,35.67,1,'Nunca paga',0.4,1,No,No
'Persona natural',101.06,0,35.67,1,'Nunca paga',0,1,No,No
'Persona natural',100.98,0,35.65,1,'Nunca paga',0.4,1,No,No
'Persona natural',100.97,0,35.65,1,'Nunca paga',0,1,No,No
'Persona natural',100.9,0,35.63,1,'Nunca paga',0,1,No,No
'Persona natural',100.73,0,35.59,1,'Nunca paga',0.4,1,No,No
'Persona natural',100.72,35.47,0,0,'Con retraso',0,1,Si,No
'Persona natural',100.67,0,35.57,1,'Nunca paga',0.4,1,No,No
'Persona natural',100.61,0,35.56,1,'Nunca paga',0.4,1,No,No
'Persona natural',100.6,35.15,0,0,'Con retraso',0,1,Si,No
'Persona natural',100.47,0,35.52,1,'Nunca paga',0,1,No,No
'Persona natural',100.46,0,35.52,1,'Nunca paga',0.4,1,No,No
'Persona natural',100.42,0,35.51,1,'Nunca paga',0,1,No,No
'Persona natural',100.36,0,35.49,1,'Nunca paga',0.4,1,No,No
'Persona natural',100.35,0,35.49,1,'Nunca paga',0.4,1,No,No
'Persona natural',100.33,0,35.49,1,'Nunca paga',0,1,No,No
'Persona natural',100.31,0,35.48,1,'Nunca paga',0.4,1,No,No
'Persona natural',100.27,0,35.47,1,'Nunca paga',0.5,1,No,No
'Persona natural',100.23,0,35.46,1,'Nunca paga',0.4,1,No,No
'Persona natural',100.18,0,35.45,1,'Nunca paga',0.4,1,No,No
'Persona natural',100.16,0,35.44,1,'Nunca paga',0.4,1,No,No
'Persona natural',100.13,0,35.44,1,'Nunca paga',0,1,No,No
'Persona natural',100.13,0,35.44,1,'Nunca paga',0.4,1,No,No
'Persona natural',100.07,0,35.42,1,'Nunca paga',0.4,1,No,No
'Persona natural',100.04,0,35.41,1,'Nunca paga',0,1,No,No
'Persona natural',99.98,0,0,0,'Nunca paga',0,0,No,No
'Persona natural',99.96,0,35.39,1,'Nunca paga',0.4,1,No,No
'Persona natural',99.89,0,35.38,1,'Nunca paga',0.4,1,No,No
'Persona natural',99.75,0,35.34,1,'Nunca paga',0,1,No,No
'Persona natural',99.71,0,35.33,1,'Nunca paga',0.4,1,No,No
'Persona natural',99.61,0,35.31,1,'Nunca paga',0.4,1,No,No
'Persona natural',99.59,0,0,0,'Nunca paga',0.4,0,No,No
'Persona natural',99.5,34.88,0,0,'Con retraso',0,1,Si,No
'Persona natural',99.5,0,35.28,1,'Nunca paga',0,1,No,No
'Persona natural',99.24,0,35.2,1,'Nunca paga',0.4,1,No,No
'Persona natural',99.22,0,35.2,1,'Nunca paga',0.4,1,No,No
'Persona natural',99.19,0,35.19,1,'Nunca paga',0.4,1,No,No
'Persona natural',99.16,0,35.18,1,'Nunca paga',0.4,1,No,No
'Persona natural',99.08,0,35.16,1,'Nunca paga',0,1,No,No
'Persona natural',99.07,0,35.16,1,'Nunca paga',0.4,1,No,No
'Persona natural',98.98,0,35.14,1,'Nunca paga',0.4,1,No,No
'Persona natural',98.86,0,35.11,1,'Nunca paga',0.4,1,No,No
'Persona natural',98.84,0,35.1,1,'Nunca paga',0.4,1,No,No
'Persona natural',98.8,0,35.09,1,'Nunca paga',0.4,1,No,No
'Persona natural',98.73,0,35.08,1,'Nunca paga',0,1,No,No
'Persona natural',98.53,0,35.03,1,'Nunca paga',0.4,1,No,No
'Persona natural',98.52,0,35.02,1,'Nunca paga',0.4,1,No,No
'Persona natural',98.51,0,35.02,1,'Nunca paga',0,1,No,No
'Persona natural',98.51,34.63,0,0,'Con retraso',0,1,Si,No
'Persona natural',98.49,0,35.02,1,'Nunca paga',0.4,1,No,No
'Persona natural',98.47,0,35.01,1,'Nunca paga',0,1,No,No
'Persona natural',98.42,0,35,1,'Nunca paga',0.4,1,No,No
'Persona natural',98.42,34.61,0,0,'Con retraso',0,1,Si,No
'Persona natural',98.37,0,34.99,1,'Nunca paga',0,1,No,No
'Persona natural',98.27,0,34.96,1,'Nunca paga',0.4,1,No,No
'Persona natural',98.18,0,34.94,1,'Nunca paga',0.4,1,No,No
'Persona natural',98.16,0,34.93,1,'Nunca paga',0.4,1,No,No
'Persona natural',98.09,0,34.92,1,'Nunca paga',0.4,1,No,No
'Persona natural',98.02,0,34.9,1,'Nunca paga',0,1,No,No
'Persona natural',97.96,0,34.88,1,'Nunca paga',0,1,No,No
'Persona natural',97.89,0,34.87,1,'Nunca paga',0.4,1,No,No
'Persona natural',97.84,0,34.85,1,'Nunca paga',0.4,1,No,No
'Persona natural',97.8,0,0,0,'Nunca paga',0.4,0,No,No
'Persona natural',97.78,0,34.84,1,'Nunca paga',0.4,1,No,No
'Persona natural',97.77,0,34.84,1,'Nunca paga',0,1,No,No
'Persona natural',97.68,34.42,0,0,'Con retraso',0,1,Si,No
'Persona natural',97.65,0,34.81,1,'Nunca paga',0.4,1,No,No
'Persona natural',97.64,0,34.8,1,'Nunca paga',0,1,No,No
'Persona natural',97.55,0,34.78,1,'Nunca paga',0.4,1,No,No
'Persona natural',97.52,0,34.77,1,'Nunca paga',0.4,1,No,No
'Persona natural',97.5,0,34.77,1,'Nunca paga',0.4,1,No,No
'Persona natural',97.47,0,34.76,1,'Nunca paga',0,1,No,No
'Persona natural',97.45,34.37,0,0,'Con retraso',0,1,Si,No
'Persona natural',97.43,0,34.75,1,'Nunca paga',0.4,1,No,No
'Persona natural',97.41,0,34.75,1,'Nunca paga',0.4,1,No,No
'Persona natural',97.28,0,34.71,1,'Nunca paga',0.4,1,No,No
'Persona natural',97.23,0,34.7,1,'Nunca paga',0,1,No,No
'Persona natural',97.22,0,34.7,1,'Nunca paga',0.4,1,No,No
'Persona natural',97.19,0,34.69,1,'Nunca paga',0.4,1,No,No
'Persona natural',97.13,0,0,0,'Nunca paga',0.4,0,No,No
'Persona natural',97.12,0,34.67,1,'Nunca paga',0.4,1,No,No
'Persona natural',97.07,0,34.66,1,'Nunca paga',0.4,1,No,No
'Persona natural',97.04,0,34.65,1,'Nunca paga',0.4,1,No,No
'Persona natural',97,0,0,0,'Nunca paga',0.4,0,No,No
'Persona natural',96.98,0,34.64,1,'Nunca paga',0,1,No,No
'Persona natural',96.91,0,34.62,1,'Nunca paga',0,1,No,No
'Persona natural',96.9,0,34.62,1,'Nunca paga',0.4,1,No,No
'Persona natural',96.89,0,34.62,1,'Nunca paga',0.4,1,No,No
'Persona natural',96.88,0,34.61,1,'Nunca paga',0.4,1,No,No
'Persona natural',96.87,0,34.61,1,'Nunca paga',0.4,1,No,No
'Persona natural',96.83,0,34.59,1,'Nunca paga',0.4,1,No,No
'Persona natural',96.79,0,34.58,1,'Nunca paga',0.4,1,No,No
'Persona natural',96.78,0,0,0,'Nunca paga',0.4,0,No,No
'Persona natural',96.77,0,34.58,1,'Nunca paga',0.4,1,No,No
'Persona natural',96.75,34.48,0,0,'Con retraso',0,1,Si,No
'Persona natural',96.67,0,0,0,'Nunca paga',0,0,No,No
'Persona natural',96.66,0,34.55,1,'Nunca paga',0.4,1,No,No
'Persona natural',96.65,0,34.55,1,'Nunca paga',0.4,1,No,No
'Persona natural',96.62,0,34.54,1,'Nunca paga',0.4,1,No,No
'Persona natural',96.57,0,34.53,1,'Nunca paga',0.4,1,No,No
'Persona natural',96.53,0,34.52,1,'Nunca paga',0.4,1,No,No
'Persona natural',96.52,0,34.51,1,'Nunca paga',0,1,No,No
'Persona natural',96.5,0,34.51,1,'Nunca paga',0,1,No,No
'Persona natural',96.47,34.12,0,0,'Con retraso',0,1,Si,No
'Persona natural',96.41,34.11,0,0,'Con retraso',0,1,Si,No
'Persona natural',96.38,34.39,0,0,'Con retraso',0,1,Si,No
'Persona natural',96.31,0,34.46,1,'Nunca paga',0.4,1,No,No
'Persona natural',96.26,34.34,0,0,'Con retraso',0,1,Si,No
'Persona natural',96.16,0,34.42,1,'Nunca paga',0.4,1,No,No
'Persona natural',96.15,0,34.42,1,'Nunca paga',0.4,1,No,No
'Persona natural',96.15,0,0,0,'Nunca paga',0.4,0,No,No
'Persona natural',96.1,0,34.41,1,'Nunca paga',0.4,1,No,No
'Persona natural',96.02,0,34.39,1,'Nunca paga',0,1,No,No
'Persona natural',95.96,0,34.37,1,'Nunca paga',0.4,1,No,No
'Persona natural',95.8,0,34.33,1,'Nunca paga',0.4,1,No,No
'Persona natural',95.75,0,34.32,1,'Nunca paga',0.4,1,No,No
'Persona natural',95.74,0,34.32,1,'Nunca paga',0.4,1,No,No
'Persona natural',95.67,33.92,0,0,'Con retraso',0,1,Si,No
'Persona natural',95.65,0,34.3,1,'Nunca paga',0.4,1,No,No
'Persona natural',95.55,0,34.27,1,'Nunca paga',0,0,No,No
'Persona natural',95.53,0,34.27,1,'Nunca paga',0.4,1,No,No
'Persona natural',95.52,0,34.26,1,'Nunca paga',0,0,No,No
'Persona natural',95.49,0,34.26,1,'Nunca paga',0.4,1,No,No
'Persona natural',95.48,0,0,0,'Nunca paga',0,0,No,No
'Persona natural',95.48,0,34.25,1,'Nunca paga',0.4,1,No,No
'Persona natural',95.47,0,34.25,1,'Nunca paga',0,0,No,No
'Persona natural',95.35,0,34.22,1,'Nunca paga',0.4,1,No,No
'Persona natural',95.29,0,34.21,1,'Nunca paga',0.4,1,No,No
'Persona natural',95.24,0,34.19,1,'Nunca paga',0,1,No,No
'Persona natural',95.23,0,34.19,1,'Nunca paga',0,1,No,No
'Persona natural',95.2,0,34.18,1,'Nunca paga',0.4,1,No,No
'Persona natural',95.17,0,34.18,1,'Nunca paga',0.4,1,No,No
'Persona natural',95.15,0,34.17,1,'Nunca paga',0,1,No,No
'Persona natural',94.99,0,34.13,1,'Nunca paga',0,1,No,No
'Persona natural',94.99,0,34.13,1,'Nunca paga',0.4,1,No,No
'Persona natural',94.94,0,34.12,1,'Nunca paga',0.4,1,No,No
'Persona natural',94.93,0,34.12,1,'Nunca paga',0.4,1,No,No
'Persona natural',94.92,0,34.11,1,'Nunca paga',0.4,1,No,No
'Persona natural',94.77,0,34.08,1,'Nunca paga',0.4,1,No,No
'Persona juridica',94.76,0,34.07,1,'Nunca paga',0,0,No,No
'Persona natural',94.75,0,34.07,1,'Nunca paga',0.4,1,No,No
'Persona natural',94.74,0,34.07,1,'Nunca paga',0,1,No,No
'Persona natural',94.67,0,34.05,1,'Nunca paga',0.4,1,No,No
'Persona natural',94.65,0,34.05,1,'Nunca paga',0.4,1,No,No
'Persona natural',94.59,0,34.03,1,'Nunca paga',0,1,No,No
'Persona natural',94.57,33.65,0,0,'Con retraso',0,1,Si,No
'Persona natural',94.54,0,34.02,1,'Nunca paga',0.4,1,No,No
'Persona natural',94.51,0,34.01,1,'Nunca paga',0,1,No,No
'Persona natural',94.42,0,33.99,1,'Nunca paga',0,1,No,No
'Persona natural',94.4,0,33.98,1,'Nunca paga',0.4,1,No,No
'Persona natural',94.37,33.6,0,0,'Con retraso',0,1,Si,No
'Persona natural',94.36,0,33.97,1,'Nunca paga',0.4,1,No,No
'Persona natural',94.35,0,33.97,1,'Nunca paga',0,1,No,No
'Persona natural',94.25,0,33.94,1,'Nunca paga',0.4,1,No,No
'Persona natural',94.2,0,33.92,1,'Nunca paga',0.4,1,No,No
'Persona natural',94.14,0,33.91,1,'Nunca paga',0.4,1,No,No
'Persona natural',94.13,0,33.91,1,'Nunca paga',0.4,1,No,No
'Persona natural',94.06,0,33.89,1,'Nunca paga',0.4,1,No,No
'Persona natural',94.02,0,33.88,1,'Nunca paga',0.4,1,No,No
'Persona natural',93.92,0,33.85,1,'Nunca paga',0,1,No,No
'Persona natural',93.85,0,33.84,1,'Nunca paga',0.4,1,No,No
'Persona natural',93.82,0,33.83,1,'Nunca paga',0.4,1,No,No
'Persona natural',93.81,0,33.83,1,'Nunca paga',0.4,1,No,No
'Persona natural',93.8,0,33.82,1,'Nunca paga',0.4,1,No,No
'Persona natural',93.79,33.45,0,0,'Con retraso',0,1,Si,No
'Persona natural',93.71,0,33.8,1,'Nunca paga',0.4,1,No,No
'Persona natural',93.68,0,33.79,1,'Nunca paga',0.4,1,No,No
'Persona natural',93.65,0,33.79,1,'Nunca paga',0.4,1,No,No
'Persona natural',93.6,0,33.77,1,'Nunca paga',0.4,1,No,No
'Persona natural',93.58,0,33.77,1,'Nunca paga',0.4,1,No,No
'Persona natural',93.56,0,33.76,1,'Nunca paga',0.4,1,No,No
'Persona natural',93.42,0,33.73,1,'Nunca paga',0,1,No,No
'Persona natural',93.37,0,33.72,1,'Nunca paga',0,1,No,No
'Persona natural',93.35,0,33.71,1,'Nunca paga',0.4,1,No,No
'Persona natural',93.31,0,33.7,1,'Nunca paga',0.4,1,No,No
'Persona natural',93.22,0,0,0,'Nunca paga',0.4,0,No,No
'Persona natural',93.15,0,33.66,1,'Nunca paga',0.4,1,No,No
'Persona natural',93.03,0,33.63,1,'Nunca paga',0.4,1,No,No
'Persona natural',93.02,0,33.63,1,'Nunca paga',0.4,1,No,No
'Persona natural',93,0,33.62,1,'Nunca paga',0,1,No,No
'Persona natural',93,33.25,0,0,'Con retraso',0,1,Si,No
'Persona natural',92.94,0,33.61,1,'Nunca paga',0.4,1,No,No
'Persona natural',92.87,0,33.59,1,'Nunca paga',0.4,1,No,No
'Persona natural',92.87,0,33.59,1,'Nunca paga',0,1,No,No
'Persona natural',92.84,0,33.58,1,'Nunca paga',0,1,No,No
'Persona natural',92.81,0,33.58,1,'Nunca paga',0,1,No,No
'Persona natural',92.79,0,33.57,1,'Nunca paga',0.4,1,No,No
'Persona natural',92.75,0,33.56,1,'Nunca paga',0.4,1,No,No
'Persona natural',92.72,33.18,0,0,'Con retraso',0,1,Si,No
'Persona natural',92.71,0,33.55,1,'Nunca paga',0.4,1,No,No
'Persona natural',92.66,33.17,0,0,'Con retraso',0,1,Si,No
'Persona natural',92.64,0,33.53,1,'Nunca paga',0,1,No,No
'Persona natural',92.4,0,33.47,1,'Nunca paga',0.4,1,No,No
'Persona natural',92.35,23.09,0,0,'Con retraso',0,0,Si,No
'Persona natural',92.31,0,33.45,1,'Nunca paga',0.4,1,No,No
'Persona natural',92.28,0,33.44,1,'Nunca paga',0.4,1,No,No
'Persona natural',92.2,0,33.42,1,'Nunca paga',0.4,1,No,No
'Persona natural',92.17,0,33.42,1,'Nunca paga',0,1,No,No
'Persona natural',92.08,0,33.39,1,'Nunca paga',0.4,1,No,No
'Persona natural',92.06,0,33.39,1,'Nunca paga',0.4,1,No,No
'Persona natural',92,0,33.37,1,'Nunca paga',0.4,1,No,No
'Persona natural',91.93,0,33.36,1,'Nunca paga',0.4,1,No,No
'Persona natural',91.88,0,33.34,1,'Nunca paga',0.4,1,No,No
'Persona natural',91.85,0,33.34,1,'Nunca paga',0,1,No,No
'Persona natural',91.85,0,33.34,1,'Nunca paga',0.4,1,No,No
'Persona natural',91.83,0,33.33,1,'Nunca paga',0.4,1,No,No
'Persona natural',91.74,0,33.3,1,'Nunca paga',0.4,1,No,No
'Persona natural',91.65,0,33.28,1,'Nunca paga',0.4,1,No,No
'Persona natural',91.65,32.92,0,0,'Con retraso',0,1,Si,No
'Persona natural',91.64,0,33.27,1,'Nunca paga',0,1,No,No
'Persona natural',91.59,0,33.26,1,'Nunca paga',0.4,1,No,No
'Persona natural',91.58,0,33.26,1,'Nunca paga',0.4,1,No,No
'Persona natural',91.58,0,33.26,1,'Nunca paga',0,1,No,No
'Persona natural',91.51,0,33.24,1,'Nunca paga',0.4,1,No,No
'Persona natural',91.48,0,33.23,1,'Nunca paga',0,1,No,No
'Persona natural',91.4,0,33.21,1,'Nunca paga',0.4,1,No,No
'Persona natural',91.33,32.84,0,0,'Con retraso',0,1,Si,No
'Persona natural',91.33,0,0,0,'Nunca paga',0.4,0,No,No
'Persona natural',91.3,0,33.19,1,'Nunca paga',0.4,1,No,No
'Persona natural',91.28,0,33.18,1,'Nunca paga',0.4,1,No,No
'Persona natural',91.23,0,33.17,1,'Nunca paga',0.4,1,No,No
'Persona natural',91.15,0,33.15,1,'Nunca paga',0.4,1,No,No
'Persona natural',91.15,0,0,0,'Nunca paga',0.4,0,No,No
'Persona natural',91.12,0,33.14,1,'Nunca paga',0.4,1,No,No
'Persona natural',91.11,32.78,0,0,'Con retraso',0,1,Si,No
'Persona natural',91.09,0,33.14,1,'Nunca paga',0,1,No,No
'Persona natural',91.08,0,33.13,1,'Nunca paga',0.4,1,No,No
'Persona natural',91.04,0,33.12,1,'Nunca paga',0.4,1,No,No
'Persona natural',91,0,33.11,1,'Nunca paga',0.4,1,No,No
'Persona natural',90.99,0,33.11,1,'Nunca paga',0,1,No,No
'Persona natural',90.96,0,33.1,1,'Nunca paga',0.4,1,No,No
'Persona natural',90.92,0,33.09,1,'Nunca paga',0.4,1,No,No
'Persona natural',90.89,32.73,0,0,'Con retraso',0,0,Si,No
'Persona natural',90.87,0,33.08,1,'Nunca paga',0.4,1,No,No
'Persona natural',90.85,0,33.08,1,'Nunca paga',0.4,1,No,No
'Persona natural',90.83,0,33.07,1,'Nunca paga',0.4,1,No,No
'Persona natural',90.76,0,33.05,1,'Nunca paga',0.4,1,No,No
'Persona natural',90.59,0,33.01,1,'Nunca paga',0.4,1,No,No
'Persona natural',90.57,0,33.01,1,'Nunca paga',0,1,No,No
'Persona natural',90.52,0,32.99,1,'Nunca paga',0,1,No,No
'Persona natural',90.49,0,32.99,1,'Nunca paga',0.4,1,No,No
'Persona natural',90.4,0,32.96,1,'Nunca paga',0.4,1,No,No
'Persona natural',90.39,0,32.96,1,'Nunca paga',0.4,1,No,No
'Persona natural',90.3,0,32.94,1,'Nunca paga',0.4,1,No,No
'Persona natural',90.27,0,32.93,1,'Nunca paga',0,1,No,No
'Persona natural',90.26,0,32.93,1,'Nunca paga',0.4,1,No,No
'Persona natural',90.22,0,32.92,1,'Nunca paga',0,1,No,No
'Persona natural',90.21,0,32.92,1,'Nunca paga',0.4,1,No,No
'Persona natural',90.2,0,32.91,1,'Nunca paga',0,1,No,No
'Persona natural',90.12,0,32.89,1,'Nunca paga',0.4,1,No,No
'Persona natural',90.09,32.79,0,0,'Con retraso',0,1,Si,No
'Persona natural',90.06,0,32.88,1,'Nunca paga',0.4,1,No,No
'Persona natural',90.05,0,32.88,1,'Nunca paga',0.4,1,No,No
'Persona natural',90.02,0,32.87,1,'Nunca paga',0,1,No,No
'Persona natural',90.02,0,32.87,1,'Nunca paga',0.4,1,No,No
'Persona natural',90.01,32.51,0,0,'Con retraso',0,1,Si,No
'Persona natural',90,0,32.86,1,'Nunca paga',0.4,1,No,No
'Persona natural',89.99,0,32.86,1,'Nunca paga',0.4,1,No,No
'Persona natural',89.81,0,32.82,1,'Nunca paga',0.4,1,No,No
'Persona natural',89.77,0,32.81,1,'Nunca paga',0,1,No,No
'Persona natural',89.73,0,32.8,1,'Nunca paga',0,1,No,No
'Persona natural',89.71,0,32.79,1,'Nunca paga',0.4,1,No,No
'Persona natural',89.7,0,32.79,1,'Nunca paga',0.4,1,No,No
'Persona natural',89.65,0,32.78,1,'Nunca paga',0.4,1,No,No
'Persona natural',89.63,0,32.77,1,'Nunca paga',0,1,No,No
'Persona natural',89.51,32.38,0,0,'Con retraso',0,1,Si,No
'Persona natural',89.49,0,32.74,1,'Nunca paga',0,0,No,No
'Persona natural',89.48,0,32.73,1,'Nunca paga',0.4,1,No,No
'Persona natural',89.41,0,32.72,1,'Nunca paga',0.4,1,No,No
'Persona natural',89.39,0,32.71,1,'Nunca paga',0.4,1,No,No
'Persona natural',89.36,32.34,0,0,'Con retraso',0,1,Si,No
'Persona natural',89.34,0,32.7,1,'Nunca paga',0.4,1,No,No
'Persona natural',89.34,0,32.7,1,'Nunca paga',0,1,No,No
'Persona natural',89.33,0,32.7,1,'Nunca paga',0.4,1,No,No
'Persona natural',89.23,0,32.66,1,'Nunca paga',0,1,No,No
'Persona natural',89.21,0,32.66,1,'Nunca paga',0.4,1,No,No
'Persona natural',89.21,0,32.66,1,'Nunca paga',0,1,No,No
'Persona natural',89.17,0,32.65,1,'Nunca paga',0.4,1,No,No
'Persona natural',89.15,0,32.64,1,'Nunca paga',0,1,No,No
'Persona natural',89.14,0,32.64,1,'Nunca paga',0.4,1,No,No
'Persona natural',89.12,0,32.63,1,'Nunca paga',0.4,1,No,No
'Persona natural',88.98,0,32.6,1,'Nunca paga',0.4,1,No,No
'Persona natural',88.97,0,32.6,1,'Nunca paga',0,1,No,No
'Persona natural',88.94,0,32.59,1,'Nunca paga',0.4,1,No,No
'Persona natural',88.92,0,32.58,1,'Nunca paga',0,1,No,No
'Persona natural',88.91,32.23,0,0,'Con retraso',0,1,Si,No
'Persona natural',88.85,0,32.57,1,'Nunca paga',0.4,1,No,No
'Persona natural',88.81,32.21,0,0,'Con retraso',0,1,Si,No
'Persona natural',88.8,0,32.55,1,'Nunca paga',0.4,1,No,No
'Persona natural',88.78,32.2,0,0,'Con retraso',0,1,Si,No
'Persona natural',88.77,32.2,0,0,'Con retraso',0,1,Si,No
'Persona natural',88.77,0,32.55,1,'Nunca paga',0.4,1,No,No
'Persona natural',88.72,0,32.53,1,'Nunca paga',0.4,1,No,No
'Persona natural',88.69,0,32.53,1,'Nunca paga',0.4,1,No,No
'Persona natural',88.65,0,32.52,1,'Nunca paga',0.4,1,No,No
'Persona natural',88.64,0,32.51,1,'Nunca paga',0,1,No,No
'Persona natural',88.57,0,0,0,'Nunca paga',0.4,0,No,No
'Persona natural',88.51,0,32.48,1,'Nunca paga',0,1,No,No
'Persona natural',88.47,0,32.47,1,'Nunca paga',0.4,1,No,No
'Persona natural',88.43,0,32.46,1,'Nunca paga',0,1,No,No
'Persona natural',88.42,0,32.46,1,'Nunca paga',0.4,1,No,No
'Persona natural',88.31,0,32.43,1,'Nunca paga',0,1,No,No
'Persona natural',88.23,0,32.41,1,'Nunca paga',0,1,No,No
'Persona natural',88.19,0,32.4,1,'Nunca paga',0,0,No,No
'Persona natural',88.11,0,32.38,1,'Nunca paga',0.4,1,No,No
'Persona natural',88.08,0,32.37,1,'Nunca paga',0,1,No,No
'Persona natural',88.03,32.01,0,0,'Con retraso',0,1,Si,No
'Persona natural',88.03,0,32.36,1,'Nunca paga',0.4,1,No,No
'Persona natural',88.02,0,32.36,1,'Nunca paga',0.4,1,No,No
'Persona natural',88.01,0,32.36,1,'Nunca paga',0.4,1,No,No
'Persona natural',87.88,0,32.32,1,'Nunca paga',0.4,1,No,No
'Persona natural',87.84,0,32.31,1,'Nunca paga',0.4,1,No,No
'Persona natural',87.76,31.94,0,0,'Con retraso',0,1,Si,No
'Persona natural',87.74,0,32.29,1,'Nunca paga',0.4,1,No,No
'Persona natural',87.73,0,32.29,1,'Nunca paga',0.4,1,No,No
'Persona natural',87.71,0,32.28,1,'Nunca paga',0,1,No,No
'Persona natural',87.67,31.92,0,0,'Con retraso',0,1,Si,No
'Persona natural',87.61,31.91,0,0,'Con retraso',0,1,Si,No
'Persona natural',87.56,0,32.24,1,'Nunca paga',0,1,No,No
'Persona natural',87.56,0,32.24,1,'Nunca paga',0.4,1,No,No
'Persona natural',87.54,0,32.24,1,'Nunca paga',0.4,1,No,No
'Persona natural',87.41,0,32.21,1,'Nunca paga',0,1,No,No
'Persona natural',87.4,0,32.2,1,'Nunca paga',0.4,1,No,No
'Persona natural',87.39,0,32.2,1,'Nunca paga',0,1,No,No
'Persona natural',87.35,31.84,0,0,'Con retraso',0,1,Si,No
'Persona natural',87.33,0,32.19,1,'Nunca paga',0.4,1,No,No
'Persona natural',87.29,0,32.18,1,'Nunca paga',0.4,1,No,No
'Persona natural',87.22,0,32.16,1,'Nunca paga',0.4,1,No,No
'Persona natural',87.14,0,32.14,1,'Nunca paga',0,1,No,No
'Persona natural',87.11,0,32.13,1,'Nunca paga',0,1,No,No
'Persona natural',87.09,31.78,0,0,'Con retraso',0,1,Si,No
'Persona natural',87.07,0,32.12,1,'Nunca paga',0.4,1,No,No
'Persona natural',87.06,0,32.12,1,'Nunca paga',0.4,1,No,No
'Persona natural',87.05,0,32.12,1,'Nunca paga',0.4,1,No,No
'Persona natural',87.03,0,22.11,1,'Nunca paga',0.4,0,No,No
'Persona natural',87,0,32.1,1,'Nunca paga',0,1,No,No
'Persona natural',86.98,0,32.1,1,'Nunca paga',0.4,1,No,No
'Persona natural',86.97,0,32.1,1,'Nunca paga',0.4,1,No,No
'Persona natural',86.96,0,32.09,1,'Nunca paga',0.4,1,No,No
'Persona natural',86.9,0,32.08,1,'Nunca paga',0.4,1,No,No
'Persona natural',86.89,0,32.08,1,'Nunca paga',0.4,1,No,No
'Persona natural',86.86,0,32.07,1,'Nunca paga',0.4,1,No,No
'Persona natural',86.82,31.71,0,0,'Con retraso',0,1,Si,No
'Persona natural',86.82,0,32.06,1,'Nunca paga',0,1,No,No
'Persona natural',86.75,0,32.03,1,'Nunca paga',0,1,No,No
'Persona natural',86.72,0,32.02,1,'Nunca paga',0.3,1,No,No
'Persona natural',86.68,0,32.01,1,'Nunca paga',0.3,1,No,No
'Persona natural',86.66,31.67,0,0,'Con retraso',0,1,Si,No
'Persona natural',86.61,0,32,1,'Nunca paga',0.3,1,No,No
'Persona natural',86.59,0,31.99,1,'Nunca paga',0.3,1,No,No
'Persona natural',86.55,0,31.98,1,'Nunca paga',0.3,1,No,No
'Persona natural',86.5,0,31.97,1,'Nunca paga',0.3,1,No,No
'Persona natural',86.48,0,31.96,1,'Nunca paga',0.3,1,No,No
'Persona natural',86.41,0,31.95,1,'Nunca paga',0.3,1,No,No
'Persona natural',86.36,0,31.93,1,'Nunca paga',0.3,1,No,No
'Persona natural',86.35,0,31.93,1,'Nunca paga',0.3,1,No,No
'Persona natural',86.33,0,31.93,1,'Nunca paga',0.3,1,No,No
'Persona natural',86.32,0,31.92,1,'Nunca paga',0.3,1,No,No
'Persona natural',86.31,0,31.92,1,'Nunca paga',0.3,1,No,No
'Persona natural',86.23,0,31.9,1,'Nunca paga',0.3,1,No,No
'Persona natural',86.22,0,31.9,1,'Nunca paga',0,1,No,No
'Persona natural',86.22,0,31.9,1,'Nunca paga',0.3,1,No,No
'Persona natural',86.21,0,31.9,1,'Nunca paga',0,1,No,No
'Persona natural',86.07,0,31.86,1,'Nunca paga',0.3,1,No,No
'Persona natural',86.04,0,31.85,1,'Nunca paga',0.3,1,No,No
'Persona natural',86.01,0,31.85,1,'Nunca paga',0.3,1,No,No
'Persona natural',85.96,0,31.83,1,'Nunca paga',0.3,1,No,No
'Persona natural',85.91,0,31.82,1,'Nunca paga',0.3,1,No,No
'Persona natural',85.87,0,31.81,1,'Nunca paga',0,1,No,No
'Persona natural',85.83,0,31.8,1,'Nunca paga',0,1,No,No
'Persona natural',85.82,0,31.8,1,'Nunca paga',0,1,No,No
'Persona natural',85.78,0,31.79,1,'Nunca paga',0.3,1,No,No
'Persona natural',85.78,31.45,0,0,'Con retraso',0,1,Si,No
'Persona natural',85.71,0,31.77,1,'Nunca paga',0.3,1,No,No
'Persona natural',85.68,0,31.76,1,'Nunca paga',0.3,1,No,No
'Persona natural',85.67,0,31.76,1,'Nunca paga',0.3,1,No,No
'Persona natural',85.66,0,31.76,1,'Nunca paga',0.3,1,No,No
'Persona natural',85.61,31.41,0,0,'Con retraso',0,1,Si,No
'Persona natural',85.52,0,31.72,1,'Nunca paga',0.3,1,No,No
'Persona natural',85.5,0,31.72,1,'Nunca paga',0.3,1,No,No
'Persona natural',85.48,0,31.71,1,'Nunca paga',0.3,1,No,No
'Persona natural',85.47,0,31.71,1,'Nunca paga',0.3,1,No,No
'Persona natural',85.46,0,31.71,1,'Nunca paga',0,1,No,No
'Persona natural',85.42,33.2,0,0,'Con retraso',0,1,Si,No
'Persona natural',85.41,0,31.7,1,'Nunca paga',0,1,No,No
'Persona natural',85.36,0,31.68,1,'Nunca paga',0.3,1,No,No
'Persona natural',85.32,0,31.67,1,'Nunca paga',0.3,1,No,No
'Persona natural',85.28,31.32,0,0,'Con retraso',0,1,Si,No
'Persona natural',85.24,0,31.65,1,'Nunca paga',0,0,No,No
'Persona natural',85.21,0,31.65,1,'Nunca paga',0,1,No,No
'Persona natural',85.18,0,31.64,1,'Nunca paga',0.3,1,No,No
'Persona natural',85.16,0,31.63,1,'Nunca paga',0.3,1,No,No
'Persona natural',85.12,0,31.62,1,'Nunca paga',0,1,No,No
'Persona natural',85.12,0,31.62,1,'Nunca paga',0.3,1,No,No
'Persona natural',85.11,0,31.62,1,'Nunca paga',0.3,1,No,No
'Persona natural',85.1,0,31.62,1,'Nunca paga',0,1,No,No
'Persona natural',85.08,0,31.61,1,'Nunca paga',0.3,1,No,No
'Persona natural',85.04,0,31.6,1,'Nunca paga',0.3,1,No,No
'Persona natural',84.91,0,0,0,'Nunca paga',0.3,0,No,No
'Persona natural',84.9,0,31.57,1,'Nunca paga',0.3,1,No,No
'Persona natural',84.88,0,31.56,1,'Nunca paga',0,1,No,No
'Persona natural',84.86,0,31.56,1,'Nunca paga',0,1,No,No
'Persona natural',84.84,31.21,0,0,'Con retraso',0,1,Si,No
'Persona natural',84.83,0,31.55,1,'Nunca paga',0,1,No,No
'Persona natural',84.74,0,31.53,1,'Nunca paga',0.3,1,No,No
'Persona natural',84.73,0,31.53,1,'Nunca paga',0.3,1,No,No
'Persona natural',84.67,0,31.51,1,'Nunca paga',0.3,1,No,No
'Persona natural',84.61,0,31.5,1,'Nunca paga',0,1,No,No
'Persona natural',84.57,0,31.49,1,'Nunca paga',0.3,1,No,No
'Persona natural',84.56,0,31.48,1,'Nunca paga',0,0,No,No
'Persona natural',84.49,0,31.47,1,'Nunca paga',0.3,1,No,No
'Persona natural',84.44,0,31.45,1,'Nunca paga',0.3,1,No,No
'Persona natural',84.4,0,31.44,1,'Nunca paga',0.3,1,No,No
'Persona natural',84.37,0,31.44,1,'Nunca paga',0,1,No,No
'Persona natural',84.32,0,31.42,1,'Nunca paga',0.3,1,No,No
'Persona juridica',84.32,0,31.42,1,'Nunca paga',0,0,No,No
'Persona natural',84.3,0,31.42,1,'Nunca paga',0,1,No,No
'Persona natural',84.3,0,31.42,1,'Nunca paga',0.3,1,No,No
'Persona natural',84.29,0,31.42,1,'Nunca paga',0,1,No,No
'Persona natural',84.29,0,31.42,1,'Nunca paga',0.3,1,No,No
'Persona natural',84.26,0,31.41,1,'Nunca paga',0.3,1,No,No
'Persona natural',84.24,0,31.39,1,'Nunca paga',0.3,1,No,No
'Persona natural',84.18,0,31.38,1,'Nunca paga',0.3,1,No,No
'Persona natural',84.15,0,31.37,1,'Nunca paga',0,1,No,No
'Persona natural',84.12,0,31.36,1,'Nunca paga',0.3,1,No,No
'Persona natural',84.1,0,31.36,1,'Nunca paga',0.3,1,No,No
'Persona natural',84.07,0,31.35,1,'Nunca paga',0.3,1,No,No
'Persona natural',84.06,0,31.35,1,'Nunca paga',0.3,1,No,No
'Persona natural',84.03,0,31.34,1,'Nunca paga',0.3,1,No,No
'Persona natural',83.96,0,31.32,1,'Nunca paga',0,1,No,No
'Persona natural',83.94,0,31.32,1,'Nunca paga',0.3,1,No,No
'Persona natural',83.91,0,31.31,1,'Nunca paga',0.3,1,No,No
'Persona natural',83.9,0,31.31,1,'Nunca paga',0.3,1,No,No
'Persona natural',83.82,0,31.29,1,'Nunca paga',0.3,1,No,No
'Persona natural',83.81,30.96,0,0,'Con retraso',0,1,Si,No
'Persona natural',83.8,0,31.28,1,'Nunca paga',0.3,1,No,No
'Persona natural',83.7,0,31.26,1,'Nunca paga',0.3,1,No,No
'Persona natural',83.59,0,31.23,1,'Nunca paga',0,1,No,No
'Persona natural',83.57,0,31.23,1,'Nunca paga',0.3,1,No,No
'Persona natural',83.55,0,31.22,1,'Nunca paga',0,1,No,No
'Persona natural',83.48,0,31.2,1,'Nunca paga',0.3,1,No,No
'Persona natural',83.44,0,31.19,1,'Nunca paga',0,1,No,No
'Persona natural',83.42,0,31.19,1,'Nunca paga',0.3,1,No,No
'Persona natural',83.37,0,31.18,1,'Nunca paga',0.3,1,No,No
'Persona natural',83.33,0,31.17,1,'Nunca paga',0.3,1,No,No
'Persona natural',83.23,0,31.14,1,'Nunca paga',0,1,No,No
'Persona natural',83.18,0,31.13,1,'Nunca paga',0.3,1,No,No
'Persona natural',83.15,0,31.12,1,'Nunca paga',0,1,No,No
'Persona natural',83.13,0,31.12,1,'Nunca paga',0,1,No,No
'Persona natural',83.1,0,31.11,1,'Nunca paga',0,1,No,No
'Persona natural',83.04,0,0,0,'Nunca paga',0,0,No,No
'Persona natural',82.94,0,31.07,1,'Nunca paga',0,1,No,No
'Persona natural',82.86,0,31.05,1,'Nunca paga',0.3,1,No,No
'Persona natural',82.77,0,31.03,1,'Nunca paga',0.3,1,No,No
'Persona natural',82.75,0,31.02,1,'Nunca paga',0.3,1,No,No
'Persona natural',82.73,0,31.02,1,'Nunca paga',0.3,1,No,No
'Persona natural',82.7,0,31.01,1,'Nunca paga',0.3,1,No,No
'Persona natural',82.63,0,30.99,1,'Nunca paga',0,1,No,No
'Persona natural',82.63,0,30.99,1,'Nunca paga',0.3,1,No,No
'Persona natural',82.61,0,30.99,1,'Nunca paga',0.3,1,No,No
'Persona natural',82.6,0,30.98,1,'Nunca paga',0.3,1,No,No
'Persona natural',82.59,0,30.98,1,'Nunca paga',0.3,1,No,No
'Persona natural',82.58,0,30.98,1,'Nunca paga',0.3,1,No,No
'Persona natural',82.57,0,30.98,1,'Nunca paga',0.3,1,No,No
'Persona natural',82.57,0,30.98,1,'Nunca paga',0,1,No,No
'Persona natural',82.56,0,30.97,1,'Nunca paga',0.3,1,No,No
'Persona natural',82.56,0,30.97,1,'Nunca paga',0,1,No,No
'Persona natural',82.54,30.64,0,0,'Con retraso',0,1,Si,No
'Persona natural',82.53,0,30.97,1,'Nunca paga',0.3,1,No,No
'Persona natural',82.52,0,30.96,1,'Nunca paga',0,1,No,No
'Persona natural',82.49,0,30.96,1,'Nunca paga',0,1,No,No
'Persona natural',82.47,0,30.95,1,'Nunca paga',0,1,No,No
'Persona natural',82.45,0,30.95,1,'Nunca paga',0,1,No,No
'Persona natural',82.44,0,0,0,'Nunca paga',0.3,0,No,No
'Persona natural',82.44,0,30.94,1,'Nunca paga',0,1,No,No
'Persona natural',82.39,0,30.93,1,'Nunca paga',0,1,No,No
'Persona natural',82.38,0,30.93,1,'Nunca paga',0.3,1,No,No
'Persona natural',82.35,0,30.92,1,'Nunca paga',0.3,1,No,No
'Persona natural',82.34,0,30.92,1,'Nunca paga',0,1,No,No
'Persona natural',82.34,0,0,0,'Nunca paga',0,0,No,No
'Persona natural',82.34,0,30.92,1,'Nunca paga',0.3,1,No,No
'Persona natural',82.34,0,0,0,'Nunca paga',0.3,0,No,No
'Persona natural',82.31,0,30.91,1,'Nunca paga',0,1,No,No
'Persona natural',82.28,0,30.9,1,'Nunca paga',0.3,1,No,No
'Persona natural',82.26,0,30.9,1,'Nunca paga',0.3,1,No,No
'Persona natural',82.24,0,30.89,1,'Nunca paga',0.3,1,No,No
'Persona natural',82.2,0,0,0,'Nunca paga',0.3,0,No,No
'Persona natural',82.19,0,30.88,1,'Nunca paga',0,0,No,No
'Persona natural',82.18,0,30.88,1,'Nunca paga',0,1,No,No
'Persona natural',82.16,0,30.87,1,'Nunca paga',0.3,1,No,No
'Persona natural',82.13,0,30.87,1,'Nunca paga',0.3,1,No,No
'Persona natural',82.11,0,30.86,1,'Nunca paga',0,1,No,No
'Persona natural',82.1,0,30.86,1,'Nunca paga',0.3,1,No,No
'Persona natural',82.08,0,30.85,1,'Nunca paga',0.3,1,No,No
'Persona natural',82.04,0,30.84,1,'Nunca paga',0.3,1,No,No
'Persona natural',82.01,0,30.84,1,'Nunca paga',0.3,1,No,No
'Persona natural',81.98,0,30.83,1,'Nunca paga',0,1,No,No
'Persona natural',81.95,0,30.82,1,'Nunca paga',0.3,1,No,No
'Persona natural',81.95,30.49,0,0,'Con retraso',0,1,Si,No
'Persona natural',81.9,0,30.81,1,'Nunca paga',0.3,1,No,No
'Persona natural',81.82,0,30.79,1,'Nunca paga',0.3,1,No,No
'Persona natural',81.82,30.46,0,0,'Con retraso',0,1,Si,No
'Persona natural',81.76,0,30.76,1,'Nunca paga',0,1,No,No
'Persona natural',81.75,0,30.76,1,'Nunca paga',0.3,1,No,No
'Persona natural',81.66,0,30.74,1,'Nunca paga',0.3,1,No,No
'Persona natural',81.65,0,30.74,1,'Nunca paga',0.3,1,No,No
'Persona natural',81.63,0,30.73,1,'Nunca paga',0.3,1,No,No
'Persona natural',81.6,0,30.72,1,'Nunca paga',0,1,No,No
'Persona natural',81.57,0,30.72,1,'Nunca paga',0,1,No,No
'Persona natural',81.56,0,30.71,1,'Nunca paga',0.3,1,No,No
'Persona natural',81.5,0,30.7,1,'Nunca paga',0.3,1,No,No
'Persona natural',81.45,30.37,0,0,'Con retraso',0,1,Si,No
'Persona natural',81.44,30.36,0,0,'Con retraso',0,1,Si,No
'Persona natural',81.42,0,30.68,1,'Nunca paga',0.3,1,No,No
'Persona natural',81.37,0,30.67,1,'Nunca paga',0,1,No,No
'Persona natural',81.28,0,30.64,1,'Nunca paga',0.3,1,No,No
'Persona natural',81.23,0,30.63,1,'Nunca paga',0.3,1,No,No
'Persona natural',81.23,0,20.63,1,'Nunca paga',0,0,No,No
'Persona natural',81.22,0,30.63,1,'Nunca paga',0.3,1,No,No
'Persona natural',81.17,30.3,0,0,'Con retraso',0,1,Si,No
'Persona natural',81.14,0,30.61,1,'Nunca paga',0.3,1,No,No
'Persona natural',81.09,0,30.6,1,'Nunca paga',0.3,1,No,No
'Persona natural',80.96,0,30.56,1,'Nunca paga',0.3,1,No,No
'Persona natural',80.95,0,30.56,1,'Nunca paga',0,1,No,No
'Persona natural',80.89,0,30.55,1,'Nunca paga',0.3,1,No,No
'Persona natural',80.86,0,30.54,1,'Nunca paga',0.3,1,No,No
'Persona natural',80.85,0,30.54,1,'Nunca paga',0.3,1,No,No
'Persona natural',80.8,0,30.52,1,'Nunca paga',0.3,1,No,No
'Persona natural',80.79,0,30.52,1,'Nunca paga',0,1,No,No
'Persona natural',80.76,0,30.51,1,'Nunca paga',0,1,No,No
'Persona natural',80.75,0,30.51,1,'Nunca paga',0.3,1,No,No
'Persona natural',80.73,0,30.51,1,'Nunca paga',0.3,1,No,No
'Persona natural',80.72,0,0,0,'Nunca paga',0.3,0,No,No
'Persona natural',80.72,0,30.5,1,'Nunca paga',0.3,1,No,No
'Persona natural',80.69,0,30.5,1,'Nunca paga',0.3,1,No,No
'Persona natural',80.64,0,30.48,1,'Nunca paga',0.3,1,No,No
'Persona natural',80.57,0,30.47,1,'Nunca paga',0.3,1,No,No
'Persona natural',80.51,0,30.45,1,'Nunca paga',0.3,1,No,No
'Persona natural',80.5,0,30.45,1,'Nunca paga',0,1,No,No
'Persona natural',80.48,0,30.44,1,'Nunca paga',0.3,1,No,No
'Persona natural',80.47,0,30.44,1,'Nunca paga',0,1,No,No
'Persona natural',80.46,0,30.44,1,'Nunca paga',0.3,1,No,No
'Persona natural',80.43,0,30.43,1,'Nunca paga',0.3,1,No,No
'Persona natural',80.32,0,30.4,1,'Nunca paga',0.3,1,No,No
'Persona natural',80.28,30.07,0,0,'Con retraso',0,1,Si,No
'Persona natural',80.23,0,30.38,1,'Nunca paga',0.3,1,No,No
'Persona natural',80.2,0,30.37,1,'Nunca paga',0,1,No,No
'Persona natural',80.17,0,30.37,1,'Nunca paga',0.3,1,No,No
'Persona natural',80.14,0,30.36,1,'Nunca paga',0.3,1,No,No
'Persona natural',80.12,0,30.35,1,'Nunca paga',0.3,1,No,No
'Persona natural',80.06,0,30.34,1,'Nunca paga',0.3,1,No,No
'Persona natural',80.06,30.02,0,0,'Con retraso',0,1,Si,No
'Persona natural',80.05,0,30.34,1,'Nunca paga',0.3,1,No,No
'Persona natural',79.99,0,30.32,1,'Nunca paga',0.3,1,No,No
'Persona juridica',79.99,30,0,0,'Con retraso',0,0,Si,No
'Persona natural',79.98,0,30.32,1,'Nunca paga',0.3,1,No,No
'Persona natural',79.95,0,30.31,1,'Nunca paga',0.3,1,No,No
'Persona natural',79.94,0,30.31,1,'Nunca paga',0.3,1,No,No
'Persona natural',79.94,29.99,0,0,'Con retraso',0,1,Si,No
'Persona natural',79.92,0,30.3,1,'Nunca paga',0.3,1,No,No
'Persona natural',79.91,0,30.3,1,'Nunca paga',0.3,1,No,No
'Persona natural',79.91,0,30.3,1,'Nunca paga',0,1,No,No
'Persona natural',79.89,0,30.3,1,'Nunca paga',0.3,1,No,No
'Persona natural',79.85,0,30.29,1,'Nunca paga',0,1,No,No
'Persona natural',79.77,0,30.27,1,'Nunca paga',0.3,1,No,No
'Persona natural',79.77,0,30.27,1,'Nunca paga',0,1,No,No
'Persona natural',79.77,29.95,0,0,'Con retraso',0,1,Si,No
'Persona natural',79.76,0,30.26,1,'Nunca paga',0,1,No,No
'Persona natural',79.75,0,30.26,1,'Nunca paga',0.3,1,No,No
'Persona natural',79.74,0,30.26,1,'Nunca paga',0,1,No,No
'Persona natural',79.73,0,30.26,1,'Nunca paga',0.3,1,No,No
'Persona natural',79.63,0,30.23,1,'Nunca paga',0.3,1,No,No
'Persona natural',79.59,0,30.22,1,'Nunca paga',0,1,No,No
'Persona natural',79.57,0,0,0,'Nunca paga',0,0,No,No
'Persona natural',79.57,0,30.22,1,'Nunca paga',0,1,No,No
'Persona natural',79.54,0,30.21,1,'Nunca paga',0,1,No,No
'Persona natural',79.53,0,30.21,1,'Nunca paga',0,0,No,No
'Persona natural',79.5,0,30.2,1,'Nunca paga',0.3,1,No,No
'Persona natural',79.5,29.88,0,0,'Con retraso',0,1,Si,No
'Persona natural',79.49,0,30.2,1,'Nunca paga',0.3,1,No,No
'Persona natural',79.49,0,30.2,1,'Nunca paga',0,1,No,No
'Persona natural',79.47,29.87,0,0,'Con retraso',0,1,Si,No
'Persona natural',79.45,0,30.19,1,'Nunca paga',0,1,No,No
'Persona natural',79.42,0,30.18,1,'Nunca paga',0.3,1,No,No
'Persona natural',79.37,0,30.17,1,'Nunca paga',0.3,1,No,No
'Persona natural',79.35,0,30.16,1,'Nunca paga',0.3,1,No,No
'Persona natural',79.25,0,30.14,1,'Nunca paga',0.3,1,No,No
'Persona natural',79.24,29.81,0,0,'Con retraso',0,1,Si,No
'Persona natural',79.23,0,30.12,1,'Nunca paga',0.3,1,No,No
'Persona natural',79.21,0,30.12,1,'Nunca paga',0.3,1,No,No
'Persona natural',79.21,0,30.12,1,'Nunca paga',0,1,No,No
'Persona natural',79.16,0,30.1,1,'Nunca paga',0.3,1,No,No
'Persona natural',79.13,29.79,0,0,'Con retraso',0,1,Si,No
'Persona natural',79.12,29.78,0,0,'Con retraso',0,1,Si,No
'Persona natural',79.11,0,30.09,1,'Nunca paga',0,1,No,No
'Persona natural',79.09,0,30.09,1,'Nunca paga',0.3,1,No,No
'Persona natural',79.06,0,30.08,1,'Nunca paga',0.3,1,No,No
'Persona natural',79.05,0,30.08,1,'Nunca paga',0.3,1,No,No
'Persona natural',79.02,0,30.07,1,'Nunca paga',0.3,1,No,No
'Persona natural',79,0,30.06,1,'Nunca paga',0,1,No,No
'Persona natural',78.94,0,30.05,1,'Nunca paga',0.3,1,No,No
'Persona natural',78.94,29.74,0,0,'Con retraso',0,1,Si,No
'Persona natural',78.89,0,30.04,1,'Nunca paga',0,1,No,No
'Persona natural',78.86,29.72,0,0,'Con retraso',0,1,Si,No
'Persona natural',78.79,0,30.01,1,'Nunca paga',0.3,1,No,No
'Persona natural',78.78,0,30.01,1,'Nunca paga',0.3,1,No,No
'Persona natural',78.75,0,30,1,'Nunca paga',0.3,1,No,No
'Persona natural',78.72,0,29.99,1,'Nunca paga',0,1,No,No
'Persona natural',78.69,0,29.99,1,'Nunca paga',0,1,No,No
'Persona natural',78.68,0,0,0,'Nunca paga',0,0,No,No
'Persona natural',78.66,0,29.98,1,'Nunca paga',0.3,1,No,No
'Persona natural',78.6,0,29.96,1,'Nunca paga',0.3,1,No,No
'Persona natural',78.59,0,29.96,1,'Nunca paga',0,1,No,No
'Persona natural',78.57,0,29.96,1,'Nunca paga',0.3,1,No,No
'Persona natural',78.55,0,29.95,1,'Nunca paga',0.3,1,No,No
'Persona natural',78.5,0,29.94,1,'Nunca paga',0.3,1,No,No
'Persona natural',78.49,0,29.94,1,'Nunca paga',0,1,No,No
'Persona natural',78.48,0,29.93,1,'Nunca paga',0.3,1,No,No
'Persona natural',78.47,0,29.93,1,'Nunca paga',0,1,No,No
'Persona natural',78.47,0,29.93,1,'Nunca paga',0.3,1,No,No
'Persona natural',78.44,0,0,0,'Nunca paga',0,0,No,No
'Persona natural',78.42,0,29.92,1,'Nunca paga',0.3,1,No,No
'Persona natural',78.39,0,29.91,1,'Nunca paga',0.3,1,No,No
'Persona natural',78.33,0,29.9,1,'Nunca paga',0.3,1,No,No
'Persona natural',78.3,0,29.89,1,'Nunca paga',0.3,1,No,No
'Persona natural',78.23,0,29.87,1,'Nunca paga',0,1,No,No
'Persona natural',78.21,0,29.87,1,'Nunca paga',0.3,1,No,No
'Persona natural',78.18,29.55,0,0,'Con retraso',0,1,Si,No
'Persona natural',78.18,0,29.86,1,'Nunca paga',0,1,No,No
'Persona natural',78.14,29.54,0,0,'Con retraso',0,1,Si,No
'Persona natural',78.11,29.84,0,0,'Con retraso',0,1,Si,No
'Persona natural',78.04,0,29.82,1,'Nunca paga',0,1,No,No
'Persona natural',78.04,29.51,0,0,'Con retraso',0,1,Si,No
'Persona natural',78.04,0,29.82,1,'Nunca paga',0.3,1,No,No
'Persona natural',78.03,19.51,0,0,'Con retraso',0,0,Si,No
'Persona natural',78.01,0,29.82,1,'Nunca paga',0.3,1,No,No
'Persona natural',77.97,0,29.81,1,'Nunca paga',0.3,1,No,No
'Persona natural',77.95,0,29.8,1,'Nunca paga',0,1,No,No
'Persona natural',77.82,29.46,0,0,'Con retraso',0,1,Si,No
'Persona natural',77.79,0,29.76,1,'Nunca paga',0.3,1,No,No
'Persona natural',77.79,0,29.76,1,'Nunca paga',0,1,No,No
'Persona natural',77.78,0,29.76,1,'Nunca paga',0,1,No,No
'Persona natural',77.72,29.43,0,0,'Con retraso',0,1,Si,No
'Persona natural',77.71,0,29.74,1,'Nunca paga',0.3,1,No,No
'Persona natural',77.64,0,29.72,1,'Nunca paga',0.3,1,No,No
'Persona natural',77.6,29.4,0,0,'Con retraso',0,1,Si,No
'Persona natural',77.6,0,29.71,1,'Nunca paga',0.3,1,No,No
'Persona natural',77.59,0,29.71,1,'Nunca paga',0.3,1,No,No
'Persona natural',77.56,0,29.7,1,'Nunca paga',0.3,1,No,No
'Persona natural',77.52,29.38,0,0,'Con retraso',0,1,Si,No
'Persona natural',77.52,0,29.69,1,'Nunca paga',0.3,1,No,No
'Persona natural',77.49,0,29.69,1,'Nunca paga',0.3,1,No,No
'Persona natural',77.47,0,29.68,1,'Nunca paga',0.3,1,No,No
'Persona natural',77.47,0,0,0,'Nunca paga',0,0,No,No
'Persona natural',77.47,0,29.68,1,'Nunca paga',0,1,No,No
'Persona natural',77.39,29.35,0,0,'Con retraso',0,1,Si,No
'Persona natural',77.33,29.34,0,0,'Con retraso',0,1,Si,No
'Persona natural',77.31,0,29.64,1,'Nunca paga',0.3,1,No,No
'Persona natural',77.26,0,29.63,1,'Nunca paga',0.3,1,No,No
'Persona natural',77.26,29.32,0,0,'Con retraso',0,1,Si,No
'Persona natural',77.24,0,29.62,1,'Nunca paga',0.3,1,No,No
'Persona natural',77.23,0,29.62,1,'Nunca paga',0.3,1,No,No
'Persona natural',77.21,29.31,0,0,'Con retraso',0,1,Si,No
'Persona natural',77.21,0,29.62,1,'Nunca paga',0.3,1,No,No
'Persona natural',77.18,0,29.61,1,'Nunca paga',0.3,1,No,No
'Persona natural',77.18,29.3,0,0,'Con retraso',0,1,Si,No
'Persona natural',77.15,0,29.6,1,'Nunca paga',0,0,No,No
'Persona natural',77.13,0,29.6,1,'Nunca paga',0.3,1,No,No
'Persona natural',77.08,0,29.58,1,'Nunca paga',0.3,1,No,No
'Persona natural',77.06,0,29.58,1,'Nunca paga',0.3,1,No,No
'Persona natural',77.02,0,29.57,1,'Nunca paga',0.3,1,No,No
'Persona natural',77.01,0,29.57,1,'Nunca paga',0.3,1,No,No
'Persona natural',76.98,0,29.56,1,'Nunca paga',0.3,1,No,No
'Persona natural',76.96,0,29.55,1,'Nunca paga',0.3,1,No,No
'Persona natural',76.94,0,29.55,1,'Nunca paga',0.3,1,No,No
'Persona natural',76.92,0,29.54,1,'Nunca paga',0.3,1,No,No
'Persona natural',76.91,0,29.54,1,'Nunca paga',0.3,1,No,No
'Persona natural',76.79,0,29.51,1,'Nunca paga',0.3,1,No,No
'Persona natural',76.73,0,29.5,1,'Nunca paga',0,1,No,No
'Persona natural',76.71,0,29.48,1,'Nunca paga',0.3,1,No,No
'Persona natural',76.68,0,29.47,1,'Nunca paga',0,1,No,No
'Persona natural',76.64,0,29.46,1,'Nunca paga',0,1,No,No
'Persona natural',76.61,0,29.46,1,'Nunca paga',0,1,No,No
'Persona natural',76.53,0,29.44,1,'Nunca paga',0,1,No,No
'Persona natural',76.52,29.13,0,0,'Con retraso',0,1,Si,No
'Persona natural',76.52,0,29.43,1,'Nunca paga',0.3,1,No,No
'Persona natural',76.51,0,29.43,1,'Nunca paga',0.3,1,No,No
'Persona natural',76.5,0,29.43,1,'Nunca paga',0.3,1,No,No
'Persona natural',76.42,0,29.41,1,'Nunca paga',0,1,No,No
'Persona natural',76.42,0,29.41,1,'Nunca paga',0.3,1,No,No
'Persona natural',76.39,18.25,11.02,1,'Con retraso',0.2,1,Si,Si
'Persona natural',76.35,0,29.39,1,'Nunca paga',0,1,No,No
'Persona natural',76.34,29.09,0,0,'Con retraso',0,1,Si,No
'Persona natural',76.32,0,29.38,1,'Nunca paga',0,1,No,No
'Persona natural',76.31,0,29.38,1,'Nunca paga',0,1,No,No
'Persona natural',76.3,0,29.38,1,'Nunca paga',0,1,No,No
'Persona natural',76.3,0,29.38,1,'Nunca paga',0.3,1,No,No
'Persona natural',76.28,0,29.37,1,'Nunca paga',0.3,1,No,No
'Persona natural',76.27,0,29.37,1,'Nunca paga',0.3,1,No,No
'Persona natural',76.26,0,29.37,1,'Nunca paga',0.3,1,No,No
'Persona natural',76.23,0,29.36,1,'Nunca paga',0.3,1,No,No
'Persona natural',76.2,0,29.35,1,'Nunca paga',0.3,1,No,No
'Persona natural',76.19,0,29.35,1,'Nunca paga',0.3,1,No,No
'Persona natural',76.16,29.04,0,0,'Con retraso',0,1,Si,No
'Persona natural',76.14,0,29.34,1,'Nunca paga',0.3,1,No,No
'Persona natural',76.12,0,29.33,1,'Nunca paga',0.3,1,No,No
'Persona natural',76.1,29.03,0,0,'Con retraso',0,1,Si,No
'Persona natural',76.09,0,29.33,1,'Nunca paga',0.3,1,No,No
'Persona natural',76.04,0,29.31,1,'Nunca paga',0.3,1,No,No
'Persona natural',76.03,0,29.31,1,'Nunca paga',0.3,1,No,No
'Persona natural',76.01,0,29.31,1,'Nunca paga',0.3,1,No,No
'Persona natural',75.98,0,29.3,1,'Nunca paga',0,1,No,No
'Persona natural',75.94,0,29.29,1,'Nunca paga',0.3,1,No,No
'Persona natural',75.91,0,29.28,1,'Nunca paga',0.3,1,No,No
'Persona natural',75.9,0,29.28,1,'Nunca paga',0,1,No,No
'Persona natural',75.85,0,29.27,1,'Nunca paga',0,1,No,No
'Persona natural',75.85,0,29.27,1,'Nunca paga',0.3,1,No,No
'Persona natural',75.72,0,29.23,1,'Nunca paga',0.3,1,No,No
'Persona natural',75.71,0,29.23,1,'Nunca paga',0.3,1,No,No
'Persona natural',75.66,0,29.22,1,'Nunca paga',0.3,1,No,No
'Persona natural',75.65,0,0,0,'Nunca paga',0.3,0,No,No
'Persona natural',75.59,0,29.2,1,'Nunca paga',0.3,1,No,No
'Persona natural',75.58,0,29.2,1,'Nunca paga',0.3,1,No,No
'Persona natural',75.53,0,29.19,1,'Nunca paga',0.3,1,No,No
'Persona natural',75.52,0,29.18,1,'Nunca paga',0,1,No,No
'Persona natural',75.49,0,29.18,1,'Nunca paga',0.3,1,No,No
'Persona natural',75.48,0,29.17,1,'Nunca paga',0,1,No,No
'Persona natural',75.47,0,29.17,1,'Nunca paga',0,1,No,No
'Persona natural',75.45,0,29.17,1,'Nunca paga',0,1,No,No
'Persona natural',75.44,0,29.16,1,'Nunca paga',0.3,1,No,No
'Persona natural',75.42,0,29.16,1,'Nunca paga',0.3,1,No,No
'Persona natural',75.4,28.85,0,0,'Con retraso',0,1,Si,No
'Persona natural',75.39,0,0,0,'Nunca paga',0.3,0,No,No
'Persona natural',75.39,0,29.15,1,'Nunca paga',0.3,1,No,No
'Persona natural',75.35,0,29.14,1,'Nunca paga',0.3,1,No,No
'Persona natural',75.33,0,29.14,1,'Nunca paga',0,1,No,No
'Persona natural',75.32,0,19.13,1,'Nunca paga',0.3,0,No,No
'Persona natural',75.31,0,29.13,1,'Nunca paga',0.3,1,No,No
'Persona natural',75.27,0,29.12,1,'Nunca paga',0.3,1,No,No
'Persona natural',75.26,0,29.12,1,'Nunca paga',0.3,1,No,No
'Persona natural',75.24,0,19.11,1,'Nunca paga',0.3,0,No,No
'Persona natural',75.24,0,29.11,1,'Nunca paga',0,1,No,No
'Persona natural',75.21,0,29.11,1,'Nunca paga',0.3,1,No,No
'Persona natural',75.21,0,29.11,1,'Nunca paga',0,1,No,No
'Persona natural',75.2,0,29.1,1,'Nunca paga',0.3,1,No,No
'Persona natural',75.19,0,29.1,1,'Nunca paga',0.3,1,No,No
'Persona natural',75.18,0,29.1,1,'Nunca paga',0.3,1,No,No
'Persona natural',75.13,0,29.09,1,'Nunca paga',0.3,1,No,No
'Persona natural',75.12,0,29.08,1,'Nunca paga',0.3,1,No,No
'Persona natural',75.09,0,29.08,1,'Nunca paga',0.3,1,No,No
'Persona natural',75.01,18.76,0,0,'Con retraso',0,1,Si,No
'Persona natural',75,0,29.05,1,'Nunca paga',0.3,1,No,No
'Persona natural',74.99,0,29.05,1,'Nunca paga',0,1,No,No
'Persona natural',74.97,0,29.05,1,'Nunca paga',0.3,1,No,No
'Persona natural',74.93,0,29.04,1,'Nunca paga',0,1,No,No
'Persona natural',74.84,0,29.01,1,'Nunca paga',0,1,No,No
'Persona natural',74.83,28.71,0,0,'Con retraso',0,1,Si,No
'Persona natural',74.82,0,29.01,1,'Nunca paga',0,1,No,No
'Persona natural',74.79,0,29,1,'Nunca paga',0.3,1,No,No
'Persona natural',74.78,0,29,1,'Nunca paga',0.3,1,No,No
'Persona natural',74.7,0,28.98,1,'Nunca paga',0,1,No,No
'Persona natural',74.69,0,28.98,1,'Nunca paga',0.3,1,No,No
'Persona natural',74.68,28.67,0,0,'Con retraso',0,1,Si,No
'Persona natural',74.63,0,28.96,1,'Nunca paga',0.3,1,No,No
'Persona natural',74.61,0,28.96,1,'Nunca paga',0,1,No,No
'Persona natural',74.6,0,28.95,1,'Nunca paga',0.3,1,No,No
'Persona natural',74.6,0,28.95,1,'Nunca paga',0,1,No,No
'Persona natural',74.58,0,28.95,1,'Nunca paga',0,1,No,No
'Persona natural',74.57,0,28.95,1,'Nunca paga',0.3,1,No,No
'Persona natural',74.56,0,28.94,1,'Nunca paga',0,1,No,No
'Persona natural',74.56,0,28.94,1,'Nunca paga',0.3,1,No,No
'Persona natural',74.55,0,28.94,1,'Nunca paga',0.3,1,No,No
'Persona natural',74.54,0,28.94,1,'Nunca paga',0,1,No,No
'Persona natural',74.51,0,28.93,1,'Nunca paga',0,0,No,No
'Persona natural',74.51,0,28.93,1,'Nunca paga',0.3,1,No,No
'Persona natural',74.47,0,28.92,1,'Nunca paga',0.3,1,No,No
'Persona natural',74.44,0,28.91,1,'Nunca paga',0,1,No,No
'Persona natural',74.4,0,28.9,1,'Nunca paga',0,1,No,No
'Persona natural',74.39,0,28.9,1,'Nunca paga',0.3,1,No,No
'Persona natural',74.35,0,28.89,1,'Nunca paga',0.3,1,No,No
'Persona natural',74.26,0,18.87,1,'Nunca paga',0.3,0,No,No
'Persona natural',74.22,0,28.86,1,'Nunca paga',0.3,1,No,No
'Persona natural',74.2,0,28.84,1,'Nunca paga',0.3,1,No,No
'Persona natural',74.16,28.54,0,0,'Con retraso',0,1,Si,No
'Persona natural',74.16,0,28.83,1,'Nunca paga',0.3,1,No,No
'Persona natural',74.1,0,28.82,1,'Nunca paga',0,1,No,No
'Persona natural',74.09,0,28.82,1,'Nunca paga',0.3,1,No,No
'Persona natural',74,0,28.79,1,'Nunca paga',0.3,1,No,No
'Persona natural',73.99,0,28.79,1,'Nunca paga',0.3,1,No,No
'Persona juridica',73.94,0,28.78,1,'Nunca paga',0,0,No,No
'Persona natural',73.93,0,28.78,1,'Nunca paga',0,1,No,No
'Persona natural',73.92,0,28.77,1,'Nunca paga',0,1,No,No
'Persona natural',73.86,0,28.76,1,'Nunca paga',0,1,No,No
'Persona natural',73.82,0,28.75,1,'Nunca paga',0,1,No,No
'Persona natural',73.8,0,28.74,1,'Nunca paga',0,1,No,No
'Persona natural',73.78,0,28.74,1,'Nunca paga',0.3,1,No,No
'Persona natural',73.75,0,28.73,1,'Nunca paga',0.3,1,No,No
'Persona natural',73.73,0,28.73,1,'Nunca paga',0.3,1,No,No
'Persona natural',73.7,0,28.72,1,'Nunca paga',0.3,1,No,No
'Persona natural',73.68,0,28.71,1,'Nunca paga',0.3,1,No,No
'Persona natural',73.64,28.41,0,0,'Con retraso',0,1,Si,No
'Persona natural',73.63,0,28.7,1,'Nunca paga',0.3,1,No,No
'Persona natural',73.63,0,28.7,1,'Nunca paga',0,1,No,No
'Persona natural',73.59,0,28.69,1,'Nunca paga',0.3,1,No,No
'Persona natural',73.55,0,28.68,1,'Nunca paga',0,1,No,No
'Persona natural',73.53,0,28.68,1,'Nunca paga',0.3,1,No,No
'Persona natural',73.53,0,28.68,1,'Nunca paga',0,1,No,No
'Persona natural',73.48,0,28.66,1,'Nunca paga',0.3,1,No,No
'Persona natural',73.47,0,28.66,1,'Nunca paga',0.3,1,No,No
'Persona natural',73.44,0,28.65,1,'Nunca paga',0.3,1,No,No
'Persona natural',73.42,0,28.65,1,'Nunca paga',0.3,1,No,No
'Persona natural',73.39,0,0,0,'Nunca paga',0.3,0,No,No
'Persona natural',73.38,0,28.64,1,'Nunca paga',0.3,1,No,No
'Persona natural',73.33,0,28.63,1,'Nunca paga',0,1,No,No
'Persona natural',73.3,0,28.62,1,'Nunca paga',0.3,1,No,No
'Persona natural',73.29,28.51,0,0,'Con retraso',0,1,Si,No
'Persona natural',73.28,0,28.61,1,'Nunca paga',0,1,No,No
'Persona natural',73.27,0,28.61,1,'Nunca paga',0.3,1,No,No
'Persona natural',73.25,0,28.61,1,'Nunca paga',0.3,1,No,No
'Persona natural',73.2,0,28.59,1,'Nunca paga',0.3,1,No,No
'Persona natural',73.19,0,28.59,1,'Nunca paga',0.3,1,No,No
'Persona natural',73.18,0,28.59,1,'Nunca paga',0,1,No,No
'Persona natural',73.18,0,28.59,1,'Nunca paga',0.3,1,No,No
'Persona natural',73.16,0,28.58,1,'Nunca paga',0.3,1,No,No
'Persona natural',73.15,0,0,0,'Nunca paga',0.3,0,No,No
'Persona natural',73.11,0,28.57,1,'Nunca paga',0.3,1,No,No
'Persona natural',73.06,0,28.56,1,'Nunca paga',0.3,1,No,No
'Persona natural',73.02,0,28.55,1,'Nunca paga',0.3,1,No,No
'Persona natural',72.99,0,28.54,1,'Nunca paga',0,1,No,No
'Persona natural',72.97,0,28.54,1,'Nunca paga',0.3,1,No,No
'Persona natural',72.91,0,28.52,1,'Nunca paga',0,1,No,No
'Persona natural',72.91,0,28.52,1,'Nunca paga',0.3,1,No,No
'Persona natural',72.9,0,28.52,1,'Nunca paga',0.3,1,No,No
'Persona natural',72.87,0,28.51,1,'Nunca paga',0.3,1,No,No
'Persona natural',72.84,0,28.5,1,'Nunca paga',0.3,1,No,No
'Persona natural',72.83,0,28.5,1,'Nunca paga',0.3,1,No,No
'Persona natural',72.82,0,28.5,1,'Nunca paga',0.3,1,No,No
'Persona natural',72.81,0,28.5,1,'Nunca paga',0.3,1,No,No
'Persona natural',72.75,0,28.48,1,'Nunca paga',0,1,No,No
'Persona natural',72.75,28.19,0,0,'Con retraso',0,1,Si,No
'Persona natural',72.71,0,28.47,1,'Nunca paga',0.3,1,No,No
'Persona natural',72.67,0,28.46,1,'Nunca paga',0.3,1,No,No
'Persona natural',72.65,0,28.46,1,'Nunca paga',0.3,1,No,No
'Persona natural',72.62,0,0,0,'Nunca paga',0,0,No,No
'Persona natural',72.6,0,28.44,1,'Nunca paga',0.3,1,No,No
'Persona natural',72.58,0,28.44,1,'Nunca paga',0.3,1,No,No
'Persona natural',72.57,0,28.44,1,'Nunca paga',0.3,1,No,No
'Persona natural',72.44,0,28.4,1,'Nunca paga',0.3,1,No,No
'Persona natural',72.43,0,28.4,1,'Nunca paga',0.3,1,No,No
'Persona natural',72.38,0,28.39,1,'Nunca paga',0.3,1,No,No
'Persona natural',72.34,0,28.38,1,'Nunca paga',0.3,1,No,No
'Persona natural',72.31,28.08,0,0,'Con retraso',0,1,Si,No
'Persona natural',72.3,0,28.37,1,'Nunca paga',0.3,1,No,No
'Persona natural',72.29,0,28.37,1,'Nunca paga',0.3,1,No,No
'Persona natural',72.24,0,28.35,1,'Nunca paga',0.3,1,No,No
'Persona natural',72.21,0,28.35,1,'Nunca paga',0.3,1,No,No
'Persona natural',72.09,0,28.32,1,'Nunca paga',0.3,1,No,No
'Persona natural',72,0,28.29,1,'Nunca paga',0.3,1,No,No
'Persona natural',71.98,0,28.29,1,'Nunca paga',0.3,1,No,No
'Persona natural',71.97,28,0,0,'Con retraso',0,1,Si,No
'Persona natural',71.96,0,28.28,1,'Nunca paga',0.3,1,No,No
'Persona natural',71.92,0,28.27,1,'Nunca paga',0.3,1,No,No
'Persona natural',71.9,0,28.27,1,'Nunca paga',0,1,No,No
'Persona natural',71.86,0,28.26,1,'Nunca paga',0,0,No,No
'Persona natural',71.84,0,28.25,1,'Nunca paga',0.3,1,No,No
'Persona natural',71.83,0,28.25,1,'Nunca paga',0,1,No,No
'Persona natural',71.83,0,28.25,1,'Nunca paga',0.3,1,No,No
'Persona natural',71.82,0,18.25,1,'Nunca paga',0.3,0,No,No
'Persona natural',71.82,0,28.25,1,'Nunca paga',0.3,1,No,No
'Persona natural',71.82,0,18.25,1,'Nunca paga',0,0,No,No
'Persona natural',71.82,0,0,0,'Nunca paga',0,0,No,No
'Persona natural',71.8,0,28.24,1,'Nunca paga',0,1,No,No
'Persona natural',71.78,0,28.24,1,'Nunca paga',0.3,1,No,No
'Persona natural',71.69,0,28.22,1,'Nunca paga',0.3,1,No,No
'Persona natural',71.68,0,28.2,1,'Nunca paga',0.3,1,No,No
'Persona natural',71.65,0,28.2,1,'Nunca paga',0,1,No,No
'Persona natural',71.58,0,28.18,1,'Nunca paga',0,0,No,No
'Persona natural',71.55,27.89,0,0,'Con retraso',0,1,Si,No
'Persona natural',71.54,0,0,0,'Nunca paga',0.3,0,No,No
'Persona natural',71.53,0,28.17,1,'Nunca paga',0.3,1,No,No
'Persona natural',71.47,0,28.15,1,'Nunca paga',0,1,No,No
'Persona natural',71.44,0,28.14,1,'Nunca paga',0.3,1,No,No
'Persona natural',71.41,0,28.14,1,'Nunca paga',0.3,1,No,No
'Persona natural',71.35,0,28.12,1,'Nunca paga',0,1,No,No
'Persona natural',71.31,0,28.11,1,'Nunca paga',0.3,1,No,No
'Persona natural',71.29,0,28.11,1,'Nunca paga',0.3,1,No,No
'Persona natural',71.25,0,28.1,1,'Nunca paga',0.3,1,No,No
'Persona natural',71.25,27.82,0,0,'Con retraso',0,1,Si,No
'Persona natural',71.19,0,28.08,1,'Nunca paga',0.3,1,No,No
'Persona natural',71.18,0,28.08,1,'Nunca paga',0,1,No,No
'Persona natural',71.17,0,28.08,1,'Nunca paga',0.3,1,No,No
'Persona natural',71.16,0,28.07,1,'Nunca paga',0.3,1,No,No
'Persona natural',71.11,0,28.06,1,'Nunca paga',0,0,No,No
'Persona natural',71.07,0,28.05,1,'Nunca paga',0.3,1,No,No
'Persona natural',71.06,27.77,0,0,'Con retraso',0,1,Si,No
'Persona natural',71.05,0,28.05,1,'Nunca paga',0,1,No,No
'Persona natural',71.05,0,28.05,1,'Nunca paga',0.3,1,No,No
'Persona natural',71.04,0,28.04,1,'Nunca paga',0.3,1,No,No
'Persona natural',71.03,0,28.04,1,'Nunca paga',0,1,No,No
'Persona natural',70.96,0,28.02,1,'Nunca paga',0.3,1,No,No
'Persona natural',70.94,0,28.02,1,'Nunca paga',0.3,1,No,No
'Persona natural',70.94,0,28.02,1,'Nunca paga',0,1,No,No
'Persona natural',70.93,0,28.02,1,'Nunca paga',0.3,1,No,No
'Persona natural',70.93,0,28.02,1,'Nunca paga',0,1,No,No
'Persona natural',70.93,27.74,0,0,'Con retraso',0,1,Si,No
'Persona natural',70.92,0,28.01,1,'Nunca paga',0.3,1,No,No
'Persona natural',70.91,0,28.01,1,'Nunca paga',0.3,1,No,No
'Persona natural',70.89,0,0,0,'Nunca paga',0,0,No,No
'Persona natural',70.88,27.72,0,0,'Con retraso',0,1,Si,No
'Persona natural',70.87,0,28,1,'Nunca paga',0.3,1,No,No
'Persona natural',70.87,0,28,1,'Nunca paga',0,1,No,No
'Persona natural',70.86,0,28,1,'Nunca paga',0,1,No,No
'Persona natural',70.85,0,28,1,'Nunca paga',0.3,1,No,No
'Persona natural',70.8,0,27.98,1,'Nunca paga',0,1,No,No
'Persona natural',70.76,0,27.97,1,'Nunca paga',0.3,1,No,No
'Persona natural',70.75,0,27.97,1,'Nunca paga',0.3,1,No,No
'Persona natural',70.72,0,27.96,1,'Nunca paga',0,1,No,No
'Persona natural',70.71,27.68,0,0,'Con retraso',0,1,Si,No
'Persona natural',70.71,0,27.96,1,'Nunca paga',0.3,1,No,No
'Persona natural',70.71,0,27.96,1,'Nunca paga',0,1,No,No
'Persona natural',70.7,0,27.96,1,'Nunca paga',0.3,1,No,No
'Persona natural',70.7,27.68,0,0,'Con retraso',0,1,Si,No
'Persona natural',70.66,0,27.95,1,'Nunca paga',0.3,1,No,No
'Persona natural',70.65,0,0,0,'Nunca paga',0.3,0,No,No
'Persona natural',70.65,0,27.95,1,'Nunca paga',0.3,1,No,No
'Persona natural',70.59,0,27.93,1,'Nunca paga',0.3,1,No,No
'Persona natural',70.55,27.64,0,0,'Con retraso',0,1,Si,No
'Persona natural',70.54,0,27.92,1,'Nunca paga',0.3,1,No,No
'Persona natural',70.47,0,27.9,1,'Nunca paga',0,1,No,No
'Persona natural',70.47,0,27.9,1,'Nunca paga',0.3,1,No,No
'Persona natural',70.46,27.62,0,0,'Con retraso',0,1,Si,No
'Persona natural',70.45,0,27.9,1,'Nunca paga',0,1,No,No
'Persona natural',70.44,27.61,0,0,'Con retraso',0,1,Si,No
'Persona natural',70.44,0,27.89,1,'Nunca paga',0.3,1,No,No
'Persona natural',70.43,0,27.89,1,'Nunca paga',0.3,1,No,No
'Persona natural',70.39,0,27.88,1,'Nunca paga',0.3,1,No,No
'Persona natural',70.36,0,27.87,1,'Nunca paga',0.3,1,No,No
'Persona natural',70.35,0,27.87,1,'Nunca paga',0,1,No,No
'Persona natural',70.34,27.59,0,0,'Con retraso',0,1,Si,No
'Persona natural',70.33,27.59,0,0,'Con retraso',0,1,Si,No
'Persona natural',70.31,0,27.86,1,'Nunca paga',0,1,No,No
'Persona natural',70.29,0,27.86,1,'Nunca paga',0.3,1,No,No
'Persona natural',70.27,27.57,0,0,'Con retraso',0,1,Si,No
'Persona natural',70.26,0,27.85,1,'Nunca paga',0.3,1,No,No
'Persona natural',70.26,27.57,0,0,'Con retraso',0,1,Si,No
'Persona natural',70.26,0,0,0,'Nunca paga',0.3,0,No,No
'Persona natural',70.26,0,27.85,1,'Nunca paga',0,1,No,No
'Persona natural',70.25,0,27.85,1,'Nunca paga',0.3,1,No,No
'Persona natural',70.23,0,27.84,1,'Nunca paga',0.3,1,No,No
'Persona natural',70.22,0,27.84,1,'Nunca paga',0.3,1,No,No
'Persona natural',70.22,27.56,0,0,'Con retraso',0,1,Si,No
'Persona natural',70.2,0,27.83,1,'Nunca paga',0.3,1,No,No
'Persona natural',70.18,0,27.83,1,'Nunca paga',0.3,1,No,No
'Persona natural',70.18,0,27.83,1,'Nunca paga',0,1,No,No
'Persona natural',70.16,0,27.82,1,'Nunca paga',0,1,No,No
'Persona natural',70.13,0,27.82,1,'Nunca paga',0.3,1,No,No
'Persona natural',70.11,0,27.81,1,'Nunca paga',0.3,1,No,No
'Persona natural',70.1,0,27.81,1,'Nunca paga',0.3,1,No,No
'Persona natural',70.08,0,0,0,'Nunca paga',0,0,No,No
'Persona natural',70.07,0,27.8,1,'Nunca paga',0,1,No,No
'Persona natural',70.04,0,27.79,1,'Nunca paga',0,1,No,No
'Persona natural',69.94,0,27.77,1,'Nunca paga',0,1,No,No
'Persona natural',69.91,0,27.76,1,'Nunca paga',0.3,1,No,No
'Persona natural',69.9,0,27.76,1,'Nunca paga',0,1,No,No
'Persona natural',69.88,0,27.75,1,'Nunca paga',0.3,1,No,No
'Persona natural',69.88,0,27.75,1,'Nunca paga',0,0,No,No
'Persona natural',69.85,0,27.75,1,'Nunca paga',0.3,1,No,No
'Persona natural',69.82,0,27.74,1,'Nunca paga',0,1,No,No
'Persona natural',69.8,0,27.73,1,'Nunca paga',0.3,1,No,No
'Persona natural',69.8,0,27.73,1,'Nunca paga',0,1,No,No
'Persona natural',69.79,0,27.73,1,'Nunca paga',0.3,1,No,No
'Persona natural',69.78,0,27.73,1,'Nunca paga',0.3,1,No,No
'Persona natural',69.77,0,27.73,1,'Nunca paga',0.3,1,No,No
'Persona natural',69.77,0,27.73,1,'Nunca paga',0,1,No,No
'Persona natural',69.76,0,27.72,1,'Nunca paga',0.3,1,No,No
'Persona natural',69.75,0,27.72,1,'Nunca paga',0.3,1,No,No
'Persona natural',69.75,27.44,0,0,'Con retraso',0,1,Si,No
'Persona natural',69.75,0,27.72,1,'Nunca paga',0,1,No,No
'Persona natural',69.75,0,17.72,1,'Nunca paga',0,0,No,No
'Persona natural',69.73,0,27.72,1,'Nunca paga',0.3,1,No,No
'Persona natural',69.73,0,27.72,1,'Nunca paga',0,1,No,No
'Persona natural',69.68,0,27.7,1,'Nunca paga',0,1,No,No
'Persona natural',69.66,0,27.7,1,'Nunca paga',0.3,1,No,No
'Persona natural',69.65,0,27.7,1,'Nunca paga',0.3,1,No,No
'Persona natural',69.63,0,27.69,1,'Nunca paga',0.3,1,No,No
'Persona natural',69.63,0,0,0,'Nunca paga',0,0,No,No
'Persona natural',69.59,0,27.68,1,'Nunca paga',0.3,1,No,No
'Persona natural',69.59,0,27.68,1,'Nunca paga',0,1,No,No
'Persona natural',69.58,0,27.68,1,'Nunca paga',0.3,1,No,No
'Persona natural',69.53,0,27.67,1,'Nunca paga',0.3,1,No,No
'Persona natural',69.53,0,27.67,1,'Nunca paga',0,1,No,No
'Persona natural',69.48,0,27.65,1,'Nunca paga',0,1,No,No
'Persona natural',69.46,0,27.65,1,'Nunca paga',0.3,1,No,No
'Persona natural',69.41,0,0,0,'Nunca paga',0.3,0,No,No
'Persona natural',69.4,0,27.63,1,'Nunca paga',0.3,1,No,No
'Persona natural',69.38,0,27.63,1,'Nunca paga',0.3,1,No,No
'Persona natural',69.37,0,27.63,1,'Nunca paga',0,1,No,No
'Persona natural',69.34,0,27.62,1,'Nunca paga',0.3,1,No,No
'Persona natural',69.3,0,27.61,1,'Nunca paga',0.3,1,No,No
'Persona natural',69.26,0,27.6,1,'Nunca paga',0.3,1,No,No
'Persona natural',69.23,0,27.59,1,'Nunca paga',0,1,No,No
'Persona natural',69.23,0,0,0,'Nunca paga',0,0,No,No
'Persona natural',69.23,27.31,0,0,'Con retraso',0,1,Si,No
'Persona natural',69.23,0,27.59,1,'Nunca paga',0.3,1,No,No
'Persona natural',69.23,27.52,0,0,'Con retraso',0,1,Si,No
'Persona natural',69.21,0,27.59,1,'Nunca paga',0.3,1,No,No
'Persona natural',69.2,0,17.58,1,'Nunca paga',0,0,No,No
'Persona natural',69.15,0,27.56,1,'Nunca paga',0.3,1,No,No
'Persona natural',69.05,0,27.54,1,'Nunca paga',0,1,No,No
'Persona natural',69.05,0,27.54,1,'Nunca paga',0.3,1,No,No
'Persona natural',69.04,0,27.53,1,'Nunca paga',0.3,1,No,No
'Persona natural',69.03,0,27.53,1,'Nunca paga',0.3,1,No,No
'Persona natural',69,0,27.52,1,'Nunca paga',0.3,1,No,No
'Persona natural',68.99,0,27.52,1,'Nunca paga',0.3,1,No,No
'Persona natural',68.96,0,27.51,1,'Nunca paga',0.3,1,No,No
'Persona natural',68.92,0,27.5,1,'Nunca paga',0.3,1,No,No
'Persona natural',68.92,0,27.5,1,'Nunca paga',0,1,No,No
'Persona natural',68.91,0,27.5,1,'Nunca paga',0.3,1,No,No
'Persona natural',68.87,0,27.49,1,'Nunca paga',0.3,1,No,No
'Persona natural',68.85,0,0,0,'Nunca paga',0.3,0,No,No
'Persona natural',68.84,0,27.48,1,'Nunca paga',0,1,No,No
'Persona natural',68.81,0,27.48,1,'Nunca paga',0.3,1,No,No
'Persona natural',68.75,0,27.46,1,'Nunca paga',0,1,No,No
'Persona natural',68.74,0,27.46,1,'Nunca paga',0.3,1,No,No
'Persona natural',68.7,0,27.45,1,'Nunca paga',0,1,No,No
'Persona natural',68.67,0,27.44,1,'Nunca paga',0.3,1,No,No
'Persona natural',68.66,0,27.44,1,'Nunca paga',0.3,1,No,No
'Persona natural',68.59,0,27.42,1,'Nunca paga',0.3,1,No,No
'Persona natural',68.57,0,27.42,1,'Nunca paga',0,1,No,No
'Persona natural',68.56,0,27.41,1,'Nunca paga',0.3,1,No,No
'Persona natural',68.54,0,27.41,1,'Nunca paga',0.3,1,No,No
'Persona natural',68.53,0,27.41,1,'Nunca paga',0,1,No,No
'Persona natural',68.53,0,27.41,1,'Nunca paga',0.3,1,No,No
'Persona natural',68.52,0,27.4,1,'Nunca paga',0,1,No,No
'Persona natural',68.51,0,27.4,1,'Nunca paga',0.3,1,No,No
'Persona natural',68.5,0,27.4,1,'Nunca paga',0.3,1,No,No
'Persona natural',68.47,0,27.39,1,'Nunca paga',0.3,1,No,No
'Persona natural',68.46,0,27.39,1,'Nunca paga',0,1,No,No
'Persona natural',68.46,0,27.39,1,'Nunca paga',0.3,1,No,No
'Persona natural',68.44,0,27.38,1,'Nunca paga',0,0,No,No
'Persona natural',68.44,27.11,0,0,'Con retraso',0,1,Si,No
'Persona natural',68.41,27.11,0,0,'Con retraso',0,1,Si,No
'Persona natural',68.4,0,27.37,1,'Nunca paga',0.3,1,No,No
'Persona natural',68.38,0,27.37,1,'Nunca paga',0.3,1,No,No
'Persona natural',68.36,27.09,0,0,'Con retraso',0,1,Si,No
'Persona natural',68.35,27.09,0,0,'Con retraso',0,1,Si,No
'Persona natural',68.33,0,27.36,1,'Nunca paga',0.3,1,No,No
'Persona natural',68.31,0,27.35,1,'Nunca paga',0.3,1,No,No
'Persona natural',68.3,27.08,0,0,'Con retraso',0,1,Si,No
'Persona natural',68.29,0,27.35,1,'Nunca paga',0.3,1,No,No
'Persona natural',68.27,0,27.34,1,'Nunca paga',0.3,1,No,No
'Persona natural',68.26,0,27.34,1,'Nunca paga',0,1,No,No
'Persona natural',68.24,0,27.33,1,'Nunca paga',0.3,1,No,No
'Persona natural',68.23,0,27.33,1,'Nunca paga',0.3,1,No,No
'Persona natural',68.22,0,27.33,1,'Nunca paga',0.3,1,No,No
'Persona natural',68.2,27.05,0,0,'Con retraso',0,1,Si,No
'Persona natural',68.19,0,27.32,1,'Nunca paga',0.3,1,No,No
'Persona natural',68.18,0,27.32,1,'Nunca paga',0,1,No,No
'Persona natural',68.18,0,0,0,'Nunca paga',0.3,0,No,No
'Persona natural',68.16,0,27.31,1,'Nunca paga',0.3,1,No,No
'Persona natural',68.15,0,27.31,1,'Nunca paga',0.3,1,No,No
'Persona natural',68.15,0,27.31,1,'Nunca paga',0,1,No,No
'Persona natural',68.12,0,27.3,1,'Nunca paga',0.3,1,No,No
'Persona natural',68.1,0,0,0,'Nunca paga',0,0,No,No
'Persona natural',68.1,0,27.3,1,'Nunca paga',0,1,No,No
'Persona natural',68.09,0,27.3,1,'Nunca paga',0.3,1,No,No
'Persona natural',68.07,0,27.29,1,'Nunca paga',0,1,No,No
'Persona natural',68.07,27.02,0,0,'Con retraso',0,1,Si,No
'Persona natural',68.07,0,27.29,1,'Nunca paga',0.3,1,No,No
'Persona natural',68.06,0,27.29,1,'Nunca paga',0.3,1,No,No
'Persona natural',68.05,0,27.29,1,'Nunca paga',0.3,1,No,No
'Persona natural',68.04,0,27.28,1,'Nunca paga',0.3,1,No,No
'Persona natural',68.03,0,27.28,1,'Nunca paga',0.3,1,No,No
'Persona natural',67.99,0,27.27,1,'Nunca paga',0.3,1,No,No
'Persona natural',67.97,0,27.27,1,'Nunca paga',0,1,No,No
'Persona natural',67.97,0,27.27,1,'Nunca paga',0.3,1,No,No
'Persona natural',67.95,0,27.26,1,'Nunca paga',0.3,1,No,No
'Persona natural',67.9,0,27.25,1,'Nunca paga',0.3,1,No,No
'Persona natural',67.87,0,27.24,1,'Nunca paga',0.3,1,No,No
'Persona natural',67.85,0,27.24,1,'Nunca paga',0,1,No,No
'Persona natural',67.83,0,27.23,1,'Nunca paga',0.3,1,No,No
'Persona natural',67.83,0,27.23,1,'Nunca paga',0,1,No,No
'Persona natural',67.82,0,27.23,1,'Nunca paga',0.3,1,No,No
'Persona natural',67.78,0,27.22,1,'Nunca paga',0.3,1,No,No
'Persona natural',67.77,0,27.22,1,'Nunca paga',0.3,1,No,No
'Persona natural',67.76,0,27.21,1,'Nunca paga',0.3,1,No,No
'Persona natural',67.72,0,27.2,1,'Nunca paga',0.3,1,No,No
'Persona natural',67.7,0,27.2,1,'Nunca paga',0,1,No,No
'Persona natural',67.67,0,27.19,1,'Nunca paga',0,1,No,No
'Persona natural',67.67,26.92,0,0,'Con retraso',0,1,Si,No
'Persona natural',67.63,0,27.18,1,'Nunca paga',0,1,No,No
'Persona natural',67.62,0,27.18,1,'Nunca paga',0.3,1,No,No
'Persona natural',67.61,0,27.18,1,'Nunca paga',0.3,1,No,No
'Persona natural',67.58,0,27.17,1,'Nunca paga',0.3,1,No,No
'Persona natural',67.57,0,17.17,1,'Nunca paga',0,0,No,No
'Persona natural',67.57,0,27.17,1,'Nunca paga',0.3,1,No,No
'Persona natural',67.57,18.25,8.79,1,'Con retraso',0.1,1,Si,Si
'Persona natural',67.56,0,27.16,1,'Nunca paga',0,1,No,No
'Persona natural',67.54,0,27.16,1,'Nunca paga',0.3,1,No,No
'Persona natural',67.54,0,27.16,1,'Nunca paga',0,0,No,No
'Persona natural',67.54,0,17.16,1,'Nunca paga',0.3,0,No,No
'Persona natural',67.52,0,27.15,1,'Nunca paga',0.3,1,No,No
'Persona natural',67.52,0,27.15,1,'Nunca paga',0,1,No,No
'Persona natural',67.51,0,27.15,1,'Nunca paga',0.3,1,No,No
'Persona natural',67.46,0,27.14,1,'Nunca paga',0.3,1,No,No
'Persona natural',67.41,0,27.13,1,'Nunca paga',0,1,No,No
'Persona natural',67.41,0,27.13,1,'Nunca paga',0.3,1,No,No
'Persona natural',67.4,0,27.12,1,'Nunca paga',0.3,1,No,No
'Persona natural',67.39,0,27.12,1,'Nunca paga',0.3,1,No,No
'Persona natural',67.32,0,27.1,1,'Nunca paga',0,1,No,No
'Persona natural',67.28,0,27.09,1,'Nunca paga',0.3,1,No,No
'Persona natural',67.27,0,27.09,1,'Nunca paga',0.3,1,No,No
'Persona natural',67.26,0,27.09,1,'Nunca paga',0,1,No,No
'Persona natural',67.24,0,27.08,1,'Nunca paga',0,1,No,No
'Persona natural',67.22,0,27.08,1,'Nunca paga',0.3,1,No,No
'Persona natural',67.22,0,0,0,'Nunca paga',0.3,0,No,No
'Persona natural',67.21,0,27.08,1,'Nunca paga',0.3,1,No,No
'Persona natural',67.21,0,27.08,1,'Nunca paga',0,1,No,No
'Persona natural',67.18,0,27.07,1,'Nunca paga',0,1,No,No
'Persona natural',67.16,0,27.06,1,'Nunca paga',0.3,1,No,No
'Persona natural',67.06,0,27.04,1,'Nunca paga',0.3,1,No,No
'Persona natural',67.04,0,0,0,'Nunca paga',0.3,0,No,No
'Persona natural',67.04,0,27.03,1,'Nunca paga',0.3,1,No,No
'Persona natural',67.02,0,27.03,1,'Nunca paga',0,1,No,No
'Persona natural',67.02,0,27.03,1,'Nunca paga',0.3,1,No,No
'Persona natural',67.01,0,27.03,1,'Nunca paga',0.3,1,No,No
'Persona natural',67,0,27.02,1,'Nunca paga',0.3,1,No,No
'Persona natural',66.98,0,27.02,1,'Nunca paga',0.3,1,No,No
'Persona natural',66.96,26.74,0,0,'Con retraso',0,1,Si,No
'Persona natural',66.91,0,27,1,'Nunca paga',0.3,1,No,No
'Persona natural',66.91,0,27,1,'Nunca paga',0,1,No,No
'Persona natural',66.91,26.73,0,0,'Con retraso',0,1,Si,No
'Persona natural',66.9,0,27,1,'Nunca paga',0.3,1,No,No
'Persona natural',66.9,0,27,1,'Nunca paga',0,1,No,No
'Persona natural',66.89,0,27,1,'Nunca paga',0.3,1,No,No
'Persona natural',66.88,0,26.99,1,'Nunca paga',0,1,No,No
'Persona natural',66.84,0,26.98,1,'Nunca paga',0.3,1,No,No
'Persona natural',66.83,0,26.98,1,'Nunca paga',0,0,No,No
'Persona natural',66.83,0,26.98,1,'Nunca paga',0.3,1,No,No
'Persona natural',66.8,0,26.97,1,'Nunca paga',0.3,1,No,No
'Persona natural',66.79,0,26.97,1,'Nunca paga',0.3,1,No,No
'Persona natural',66.78,0,26.97,1,'Nunca paga',0.3,1,No,No
'Persona natural',66.77,0,26.97,1,'Nunca paga',0.3,1,No,No
'Persona natural',66.71,0,26.95,1,'Nunca paga',0.3,1,No,No
'Persona natural',66.69,0,26.95,1,'Nunca paga',0.3,1,No,No
'Persona natural',66.67,0,26.94,1,'Nunca paga',0,1,No,No
'Persona natural',66.66,0,26.94,1,'Nunca paga',0,1,No,No
'Persona natural',66.63,0,26.92,1,'Nunca paga',0.3,1,No,No
'Persona natural',66.62,0,26.92,1,'Nunca paga',0.3,1,No,No
'Persona natural',66.61,0,26.92,1,'Nunca paga',0,1,No,No
'Persona natural',66.61,0,26.92,1,'Nunca paga',0.3,1,No,No
'Persona natural',66.59,0,26.91,1,'Nunca paga',0.3,1,No,No
'Persona natural',66.58,0,26.91,1,'Nunca paga',0,1,No,No
'Persona natural',66.58,0,26.91,1,'Nunca paga',0.3,1,No,No
'Persona natural',66.57,0,26.91,1,'Nunca paga',0.3,1,No,No
'Persona natural',66.57,0,26.91,1,'Nunca paga',0,1,No,No
'Persona natural',66.54,0,26.9,1,'Nunca paga',0.3,1,No,No
'Persona natural',66.53,0,26.9,1,'Nunca paga',0.3,1,No,No
'Persona natural',66.52,26.63,0,0,'Con retraso',0,1,Si,No
'Persona natural',66.52,0,26.89,1,'Nunca paga',0.3,1,No,No
'Persona natural',66.5,0,26.89,1,'Nunca paga',0.3,1,No,No
'Persona natural',66.5,0,0,0,'Nunca paga',0.3,0,No,No
'Persona natural',66.5,0,0,0,'Nunca paga',0,0,No,No
'Persona natural',66.47,0,26.88,1,'Nunca paga',0.3,1,No,No
'Persona natural',66.43,0,26.87,1,'Nunca paga',0,1,No,No
'Persona natural',66.42,0,26.87,1,'Nunca paga',0,1,No,No
'Persona natural',66.42,0,26.87,1,'Nunca paga',0.3,1,No,No
'Persona natural',66.36,0,26.85,1,'Nunca paga',0.3,1,No,No
'Persona natural',66.35,0,26.85,1,'Nunca paga',0,1,No,No
'Persona natural',66.33,0,26.85,1,'Nunca paga',0.3,1,No,No
'Persona natural',66.3,0,26.84,1,'Nunca paga',0.3,1,No,No
'Persona natural',66.29,0,26.84,1,'Nunca paga',0.3,1,No,No
'Persona natural',66.22,0,26.82,1,'Nunca paga',0.3,1,No,No
'Persona natural',66.21,0,26.82,1,'Nunca paga',0,1,No,No
'Persona natural',66.18,0,26.81,1,'Nunca paga',0.3,1,No,No
'Persona natural',66.17,0,26.81,1,'Nunca paga',0.3,1,No,No
'Persona natural',66.16,0,26.8,1,'Nunca paga',0,1,No,No
'Persona natural',66.15,26.54,0,0,'Con retraso',0,1,Si,No
'Persona natural',66.12,0,26.79,1,'Nunca paga',0.3,1,No,No
'Persona natural',66.12,0,26.79,1,'Nunca paga',0,1,No,No
'Persona natural',66.08,0,26.78,1,'Nunca paga',0.3,1,No,No
'Persona natural',66.07,0,26.78,1,'Nunca paga',0.3,1,No,No
'Persona natural',66.07,0,0,0,'Nunca paga',0.3,0,No,No
'Persona natural',66.06,0,26.78,1,'Nunca paga',0.3,1,No,No
'Persona natural',66.01,0,26.77,1,'Nunca paga',0.3,1,No,No
'Persona natural',66.01,0,26.77,1,'Nunca paga',0,1,No,No
'Persona natural',65.98,16.5,0,0,'Con retraso',0,0,Si,No
'Persona natural',65.98,0,26.76,1,'Nunca paga',0.3,1,No,No
'Persona natural',65.97,26.5,0,0,'Con retraso',0,1,Si,No
'Persona natural',65.93,0,26.75,1,'Nunca paga',0.3,1,No,No
'Persona natural',65.89,0,26.74,1,'Nunca paga',0.3,1,No,No
'Persona natural',65.81,0,26.72,1,'Nunca paga',0,1,No,No
'Persona natural',65.8,0,26.71,1,'Nunca paga',0.3,1,No,No
'Persona natural',65.78,0,26.71,1,'Nunca paga',0,0,No,No
'Persona natural',65.78,0,26.71,1,'Nunca paga',0.3,1,No,No
'Persona natural',65.77,0,26.71,1,'Nunca paga',0.3,1,No,No
'Persona natural',65.73,0,26.7,1,'Nunca paga',0.3,1,No,No
'Persona natural',65.72,0,26.69,1,'Nunca paga',0.3,1,No,No
'Persona natural',65.7,0,26.69,1,'Nunca paga',0.3,1,No,No
'Persona natural',65.68,0,26.68,1,'Nunca paga',0.3,1,No,No
'Persona natural',65.66,0,26.68,1,'Nunca paga',0.3,1,No,No
'Persona natural',65.64,0,26.67,1,'Nunca paga',0.3,1,No,No
'Persona natural',65.63,0,26.67,1,'Nunca paga',0,1,No,No
'Persona natural',65.63,0,26.67,1,'Nunca paga',0.3,1,No,No
'Persona natural',65.61,0,26.67,1,'Nunca paga',0.3,1,No,No
'Persona natural',65.59,0,16.66,1,'Nunca paga',0.3,0,No,No
'Persona natural',65.54,0,26.65,1,'Nunca paga',0.3,1,No,No
'Persona natural',65.52,0,26.64,1,'Nunca paga',0,1,No,No
'Persona natural',65.52,0,26.64,1,'Nunca paga',0.3,1,No,No
'Persona natural',65.51,0,26.64,1,'Nunca paga',0.3,1,No,No
'Persona natural',65.51,0,26.64,1,'Nunca paga',0,1,No,No
'Persona natural',65.5,0,26.64,1,'Nunca paga',0.3,1,No,No
'Persona natural',65.47,0,26.63,1,'Nunca paga',0.3,1,No,No
'Persona natural',65.43,0,26.62,1,'Nunca paga',0.3,1,No,No
'Persona natural',65.35,0,26.6,1,'Nunca paga',0.3,1,No,No
'Persona natural',65.34,0,26.6,1,'Nunca paga',0.3,1,No,No
'Persona natural',65.32,0,26.59,1,'Nunca paga',0.3,1,No,No
'Persona natural',65.31,0,26.59,1,'Nunca paga',0.3,1,No,No
'Persona natural',65.3,0,26.59,1,'Nunca paga',0,1,No,No
'Persona natural',65.28,0,26.58,1,'Nunca paga',0.3,1,No,No
'Persona natural',65.26,0,26.58,1,'Nunca paga',0.3,1,No,No
'Persona natural',65.25,0,26.58,1,'Nunca paga',0,1,No,No
'Persona natural',65.24,0,26.57,1,'Nunca paga',0,1,No,No
'Persona natural',65.24,0,26.57,1,'Nunca paga',0.3,1,No,No
'Persona natural',65.22,0,26.57,1,'Nunca paga',0.3,1,No,No
'Persona natural',65.21,0,26.57,1,'Nunca paga',0.3,1,No,No
'Persona natural',65.2,0,26.56,1,'Nunca paga',0.3,1,No,No
'Persona natural',65.19,0,26.56,1,'Nunca paga',0,1,No,No
'Persona natural',65.16,0,26.55,1,'Nunca paga',0,1,No,No
'Persona natural',65.13,0,26.55,1,'Nunca paga',0.3,1,No,No
'Persona natural',65.12,0,26.54,1,'Nunca paga',0.3,1,No,No
'Persona natural',65.08,0,26.53,1,'Nunca paga',0.3,1,No,No
'Persona natural',65.06,0,26.53,1,'Nunca paga',0.3,1,No,No
'Persona natural',65.04,0,26.52,1,'Nunca paga',0.3,1,No,No
'Persona natural',65.03,0,26.52,1,'Nunca paga',0.3,1,No,No
'Persona natural',65.03,26.45,0,0,'Con retraso',0,1,Si,No
'Persona natural',65.02,0,26.52,1,'Nunca paga',0,1,No,No
'Persona natural',65.02,0,26.52,1,'Nunca paga',0.3,1,No,No
'Persona natural',65.02,26.42,0,0,'Con retraso',0,1,Si,No
'Persona natural',65.01,0,26.52,1,'Nunca paga',0,1,No,No
'Persona natural',65.01,0,26.52,1,'Nunca paga',0.3,1,No,No
'Persona natural',64.98,0,26.51,1,'Nunca paga',0.3,1,No,No
'Persona natural',64.96,0,26.5,1,'Nunca paga',0.3,1,No,No
'Persona natural',64.95,0,26.5,1,'Nunca paga',0.3,1,No,No
'Persona natural',64.94,0,26.5,1,'Nunca paga',0,1,No,No
'Persona natural',64.93,26.43,0,0,'Con retraso',0,1,Si,No
'Persona natural',64.92,0,26.49,1,'Nunca paga',0.3,1,No,No
'Persona natural',64.88,0,26.48,1,'Nunca paga',0,1,No,No
'Persona natural',64.87,0,26.48,1,'Nunca paga',0,1,No,No
'Persona natural',64.87,0,26.48,1,'Nunca paga',0.3,1,No,No
'Persona natural',64.86,0,26.48,1,'Nunca paga',0,1,No,No
'Persona natural',64.86,0,26.48,1,'Nunca paga',0.3,1,No,No
'Persona natural',64.85,0,26.48,1,'Nunca paga',0.3,1,No,No
'Persona natural',64.84,0,26.47,1,'Nunca paga',0.3,1,No,No
'Persona natural',64.84,0,26.47,1,'Nunca paga',0,1,No,No
'Persona natural',64.81,0,26.47,1,'Nunca paga',0.3,1,No,No
'Persona natural',64.78,0,26.46,1,'Nunca paga',0.3,1,No,No
'Persona natural',64.77,0,26.46,1,'Nunca paga',0.3,1,No,No
'Persona natural',64.76,0,26.45,1,'Nunca paga',0,1,No,No
'Persona natural',64.71,0,26.44,1,'Nunca paga',0.3,1,No,No
'Persona natural',64.7,0,26.44,1,'Nunca paga',0.3,1,No,No
'Persona natural',64.69,0,26.44,1,'Nunca paga',0.3,1,No,No
'Persona natural',64.65,0,26.43,1,'Nunca paga',0.3,1,No,No
'Persona natural',64.62,0,26.42,1,'Nunca paga',0.3,1,No,No
'Persona natural',64.62,26.16,0,0,'Con retraso',0,1,Si,No
'Persona natural',64.54,0,26.4,1,'Nunca paga',0,1,No,No
'Persona natural',64.53,0,26.4,1,'Nunca paga',0.3,1,No,No
'Persona natural',64.5,0,26.39,1,'Nunca paga',0,1,No,No
'Persona natural',64.5,0,26.39,1,'Nunca paga',0.3,1,No,No
'Persona natural',64.48,0,26.38,1,'Nunca paga',0.3,1,No,No
'Persona natural',64.48,0,26.38,1,'Nunca paga',0,1,No,No
'Persona natural',64.44,0,26.37,1,'Nunca paga',0,1,No,No
'Persona natural',64.41,0,26.37,1,'Nunca paga',0,1,No,No
'Persona natural',64.41,0,0,0,'Nunca paga',0.3,0,No,No
'Persona natural',64.4,0,0,0,'Nunca paga',0.3,0,No,No
'Persona natural',64.35,0,26.35,1,'Nunca paga',0.3,1,No,No
'Persona natural',64.35,0,26.35,1,'Nunca paga',0,1,No,No
'Persona natural',64.35,26.09,0,0,'Con retraso',0,1,Si,No
'Persona natural',64.34,0,26.35,1,'Nunca paga',0,1,No,No
'Persona natural',64.33,0,26.35,1,'Nunca paga',0.3,1,No,No
'Persona natural',64.31,0,26.34,1,'Nunca paga',0.3,1,No,No
'Persona natural',64.26,26.07,0,0,'Con retraso',0,1,Si,No
'Persona natural',64.21,26.06,0,0,'Con retraso',0,1,Si,No
'Persona natural',64.21,0,26.32,1,'Nunca paga',0.3,1,No,No
'Persona natural',64.2,0,26.31,1,'Nunca paga',0.3,1,No,No
'Persona natural',64.19,0,26.31,1,'Nunca paga',0,1,No,No
'Persona natural',64.18,0,26.31,1,'Nunca paga',0.3,1,No,No
'Persona natural',64.16,0,26.3,1,'Nunca paga',0.3,1,No,No
'Persona natural',64.14,0,26.3,1,'Nunca paga',0.3,1,No,No
'Persona natural',64.13,0,26.3,1,'Nunca paga',0.3,1,No,No
'Persona natural',64.12,0,26.28,1,'Nunca paga',0.2,1,No,No
'Persona natural',64.1,0,26.28,1,'Nunca paga',0,1,No,No
'Persona natural',64.08,0,26.27,1,'Nunca paga',0.2,1,No,No
'Persona natural',64.06,0,0,0,'Nunca paga',0,0,No,No
'Persona natural',64.05,0,26.27,1,'Nunca paga',0.2,1,No,No
'Persona natural',64.02,26.01,0,0,'Con retraso',0,1,Si,No
'Persona natural',64.02,0,26.26,1,'Nunca paga',0,0,No,No
'Persona natural',64.02,0,26.26,1,'Nunca paga',0.2,1,No,No
'Persona natural',64.01,0,26.26,1,'Nunca paga',0.2,1,No,No
'Persona natural',63.98,0,26.25,1,'Nunca paga',0.2,1,No,No
'Persona natural',63.93,0,26.24,1,'Nunca paga',0,1,No,No
'Persona natural',63.89,0,26.23,1,'Nunca paga',0,1,No,No
'Persona natural',63.88,0,26.22,1,'Nunca paga',0.2,1,No,No
'Persona natural',63.88,25.97,0,0,'Con retraso',0,1,Si,No
'Persona natural',63.84,0,26.21,1,'Nunca paga',0.2,1,No,No
'Persona natural',63.84,25.96,0,0,'Con retraso',0,1,Si,No
'Persona juridica',63.84,0,26.21,1,'Nunca paga',0,0,No,No
'Persona natural',63.83,0,26.21,1,'Nunca paga',0.2,1,No,No
'Persona natural',63.81,0,26.21,1,'Nunca paga',0.2,1,No,No
'Persona natural',63.79,0,26.2,1,'Nunca paga',0.2,1,No,No
'Persona natural',63.79,0,26.2,1,'Nunca paga',0,1,No,No
'Persona natural',63.78,0,26.2,1,'Nunca paga',0.2,1,No,No
'Persona natural',63.76,0,26.19,1,'Nunca paga',0,1,No,No
'Persona natural',63.72,0,26.18,1,'Nunca paga',0.2,1,No,No
'Persona natural',63.7,0,26.18,1,'Nunca paga',0.2,1,No,No
'Persona natural',63.69,0,26.18,1,'Nunca paga',0,1,No,No
'Persona natural',63.67,0,26.17,1,'Nunca paga',0.2,1,No,No
'Persona natural',63.61,0,26.16,1,'Nunca paga',0.2,1,No,No
'Persona natural',63.6,0,26.15,1,'Nunca paga',0,1,No,No
'Persona natural',63.56,0,26.14,1,'Nunca paga',0.2,1,No,No
'Persona natural',63.55,0,26.14,1,'Nunca paga',0.2,1,No,No
'Persona natural',63.54,0,26.14,1,'Nunca paga',0.2,1,No,No
'Persona natural',63.52,0,26.13,1,'Nunca paga',0.2,1,No,No
'Persona natural',63.51,0,16.13,1,'Nunca paga',0.2,0,No,No
'Persona natural',63.46,0,26.12,1,'Nunca paga',0,1,No,No
'Persona natural',63.46,0,26.12,1,'Nunca paga',0.2,1,No,No
'Persona natural',63.45,0,26.12,1,'Nunca paga',0,1,No,No
'Persona natural',63.45,25.87,0,0,'Con retraso',0,1,Si,No
'Persona natural',63.43,0,26.11,1,'Nunca paga',0.2,1,No,No
'Persona natural',63.4,25.85,0,0,'Con retraso',0,1,Si,No
'Persona natural',63.4,0,26.1,1,'Nunca paga',0.2,1,No,No
'Persona natural',63.39,0,26.1,1,'Nunca paga',0.2,1,No,No
'Persona natural',63.38,0,26.1,1,'Nunca paga',0,1,No,No
'Persona natural',63.36,0,26.09,1,'Nunca paga',0.2,1,No,No
'Persona natural',63.34,0,26.09,1,'Nunca paga',0.2,1,No,No
'Persona natural',63.34,25.84,0,0,'Con retraso',0,1,Si,No
'Persona natural',63.34,0,26.09,1,'Nunca paga',0,1,No,No
'Persona natural',63.3,0,26.08,1,'Nunca paga',0.2,1,No,No
'Persona natural',63.3,0,0,0,'Nunca paga',0,0,No,No
'Persona natural',63.27,25.82,0,0,'Con retraso',0,1,Si,No
'Persona natural',63.27,0,26.07,1,'Nunca paga',0.2,1,No,No
'Persona natural',63.24,25.81,0,0,'Con retraso',0,1,Si,No
'Persona natural',63.23,0,26.06,1,'Nunca paga',0,1,No,No
'Persona natural',63.23,0,26.06,1,'Nunca paga',0.2,1,No,No
'Persona natural',63.22,0,26.06,1,'Nunca paga',0.2,1,No,No
'Persona natural',63.22,0,26.06,1,'Nunca paga',0,1,No,No
'Persona natural',63.22,0,0,0,'Nunca paga',0.2,0,No,No
'Persona natural',63.2,0,26.05,1,'Nunca paga',0.2,1,No,No
'Persona natural',63.2,0,0,0,'Nunca paga',0.2,0,No,No
'Persona natural',63.18,25.8,0,0,'Con retraso',0,1,Si,No
'Persona natural',63.16,0,26.04,1,'Nunca paga',0,1,No,No
'Persona natural',63.16,0,26.04,1,'Nunca paga',0.2,1,No,No
'Persona natural',63.12,0,26.03,1,'Nunca paga',0,1,No,No
'Persona natural',63.1,0,26.03,1,'Nunca paga',0.2,1,No,No
'Persona natural',63.09,0,26.03,1,'Nunca paga',0.2,1,No,No
'Persona natural',63.07,0,26.02,1,'Nunca paga',0.2,1,No,No
'Persona natural',63.06,25.77,0,0,'Con retraso',0,1,Si,No
'Persona natural',63.05,0,26.02,1,'Nunca paga',0,1,No,No
'Persona natural',62.98,0,26,1,'Nunca paga',0.2,1,No,No
'Persona natural',62.94,0,0,0,'Nunca paga',0,0,No,No
'Persona natural',62.93,0,25.99,1,'Nunca paga',0.2,1,No,No
'Persona natural',62.92,0,25.98,1,'Nunca paga',0,1,No,No
'Persona natural',62.87,0,25.97,1,'Nunca paga',0.2,1,No,No
'Persona natural',62.85,0,25.97,1,'Nunca paga',0.2,1,No,No
'Persona natural',62.84,0,25.96,1,'Nunca paga',0.2,1,No,No
'Persona natural',62.81,0,25.96,1,'Nunca paga',0,1,No,No
'Persona natural',62.81,0,25.96,1,'Nunca paga',0.2,1,No,No
'Persona natural',62.8,25.7,0,0,'Con retraso',0,1,Si,No
'Persona natural',62.78,0,25.95,1,'Nunca paga',0.2,1,No,No
'Persona natural',62.73,0,25.94,1,'Nunca paga',0.2,1,No,No
'Persona natural',62.72,0,25.93,1,'Nunca paga',0,1,No,No
'Persona natural',62.69,0,25.93,1,'Nunca paga',0.2,1,No,No
'Persona natural',62.67,0,25.92,1,'Nunca paga',0,1,No,No
'Persona natural',62.67,0,25.92,1,'Nunca paga',0.2,1,No,No
'Persona natural',62.66,0,25.92,1,'Nunca paga',0.2,1,No,No
'Persona natural',62.64,0,25.91,1,'Nunca paga',0,1,No,No
'Persona natural',62.64,0,25.91,1,'Nunca paga',0.2,1,No,No
'Persona natural',62.61,0,25.91,1,'Nunca paga',0,1,No,No
'Persona natural',62.6,0,25.9,1,'Nunca paga',0,1,No,No
'Persona natural',62.58,0,25.9,1,'Nunca paga',0.2,1,No,No
'Persona natural',62.53,0,25.89,1,'Nunca paga',0.2,1,No,No
'Persona natural',62.48,0,25.87,1,'Nunca paga',0.2,1,No,No
'Persona natural',62.46,0,25.87,1,'Nunca paga',0.2,1,No,No
'Persona natural',62.45,0,25.87,1,'Nunca paga',0.2,1,No,No
'Persona natural',62.45,25.8,0,0,'Con retraso',0,1,Si,No
'Persona natural',62.41,0,25.86,1,'Nunca paga',0,1,No,No
'Persona natural',62.37,0,25.85,1,'Nunca paga',0.2,1,No,No
'Persona natural',62.35,0,25.84,1,'Nunca paga',0.2,1,No,No
'Persona natural',62.31,0,25.83,1,'Nunca paga',0,1,No,No
'Persona natural',62.31,0,25.83,1,'Nunca paga',0,0,No,No
'Persona natural',62.3,0,25.83,1,'Nunca paga',0,1,No,No
'Persona natural',62.28,0,25.82,1,'Nunca paga',0.2,1,No,No
'Persona natural',62.26,0,25.82,1,'Nunca paga',0.2,1,No,No
'Persona natural',62.24,0,25.81,1,'Nunca paga',0,1,No,No
'Persona natural',62.23,0,25.81,1,'Nunca paga',0,1,No,No
'Persona natural',62.2,0,25.8,1,'Nunca paga',0.2,1,No,No
'Persona natural',62.19,0,25.8,1,'Nunca paga',0.2,1,No,No
'Persona natural',62.18,0,25.8,1,'Nunca paga',0.2,1,No,No
'Persona natural',62.18,0,25.8,1,'Nunca paga',0,1,No,No
'Persona natural',62.12,0,25.78,1,'Nunca paga',0,1,No,No
'Persona natural',62.11,0,25.78,1,'Nunca paga',0.2,1,No,No
'Persona natural',62.11,0,25.78,1,'Nunca paga',0,1,No,No
'Persona natural',62.09,0,25.78,1,'Nunca paga',0,1,No,No
'Persona natural',62.09,0,25.78,1,'Nunca paga',0.2,1,No,No
'Persona natural',62.08,25.52,0,0,'Con retraso',0,1,Si,No
'Persona natural',62.07,0,25.77,1,'Nunca paga',0,1,No,No
'Persona natural',62.07,0,25.77,1,'Nunca paga',0.2,1,No,No
'Persona natural',62.06,25.52,0,0,'Con retraso',0,1,Si,No
'Persona natural',62.04,0,25.76,1,'Nunca paga',0,1,No,No
'Persona natural',62.03,25.51,0,0,'Con retraso',0,1,Si,No
'Persona natural',62.03,0,25.76,1,'Nunca paga',0,1,No,No
'Persona natural',62.02,0,25.76,1,'Nunca paga',0,1,No,No
'Persona natural',62,0,25.75,1,'Nunca paga',0.2,1,No,No
'Persona natural',61.98,0,25.75,1,'Nunca paga',0.2,1,No,No
'Persona natural',61.96,0,25.74,1,'Nunca paga',0.2,1,No,No
'Persona natural',61.95,0,25.74,1,'Nunca paga',0.2,1,No,No
'Persona natural',61.93,0,25.74,1,'Nunca paga',0,1,No,No
'Persona natural',61.93,0,25.74,1,'Nunca paga',0.2,1,No,No
'Persona natural',61.91,0,0,0,'Nunca paga',0,0,No,No
'Persona natural',61.89,0,25.73,1,'Nunca paga',0.2,1,No,No
'Persona natural',61.86,0,25.72,1,'Nunca paga',0,1,No,No
'Persona natural',61.85,0,25.72,1,'Nunca paga',0,1,No,No
'Persona natural',61.84,0,25.71,1,'Nunca paga',0.2,1,No,No
'Persona natural',61.83,0,25.71,1,'Nunca paga',0.2,1,No,No
'Persona natural',61.81,0,25.71,1,'Nunca paga',0.2,1,No,No
'Persona natural',61.76,0,25.69,1,'Nunca paga',0.2,1,No,No
'Persona natural',61.75,0,25.69,1,'Nunca paga',0.2,1,No,No
'Persona natural',61.74,0,25.69,1,'Nunca paga',0.2,1,No,No
'Persona natural',61.74,0,25.69,1,'Nunca paga',0,1,No,No
'Persona natural',61.69,0,25.68,1,'Nunca paga',0,1,No,No
'Persona natural',61.66,0,25.67,1,'Nunca paga',0,1,No,No
'Persona natural',61.66,0,25.67,1,'Nunca paga',0.2,1,No,No
'Persona natural',61.63,0,25.66,1,'Nunca paga',0.2,1,No,No
'Persona natural',61.61,0,25.66,1,'Nunca paga',0,1,No,No
'Persona natural',61.59,0,25.64,1,'Nunca paga',0.2,1,No,No
'Persona natural',61.57,0,25.64,1,'Nunca paga',0.2,1,No,No
'Persona natural',61.56,0,25.63,1,'Nunca paga',0,1,No,No
'Persona natural',61.53,25.39,0,0,'Con retraso',0,1,Si,No
'Persona natural',61.52,0,25.62,1,'Nunca paga',0.2,1,No,No
'Persona natural',61.5,0,25.62,1,'Nunca paga',0.2,1,No,No
'Persona natural',61.5,25.38,0,0,'Con retraso',0,1,Si,No
'Persona natural',61.49,0,25.62,1,'Nunca paga',0.2,1,No,No
'Persona natural',61.45,0,25.61,1,'Nunca paga',0.2,1,No,No
'Persona natural',61.44,0,25.6,1,'Nunca paga',0.2,1,No,No
'Persona natural',61.42,0,25.6,1,'Nunca paga',0,1,No,No
'Persona natural',61.36,0,25.58,1,'Nunca paga',0.2,1,No,No
'Persona natural',61.33,0,25.58,1,'Nunca paga',0,1,No,No
'Persona natural',61.33,0,25.58,1,'Nunca paga',0.2,1,No,No
'Persona natural',61.31,0,25.57,1,'Nunca paga',0.2,1,No,No
'Persona natural',61.27,0,25.56,1,'Nunca paga',0,1,No,No
'Persona natural',61.27,0,25.56,1,'Nunca paga',0.2,1,No,No
'Persona natural',61.23,0,25.55,1,'Nunca paga',0.2,1,No,No
'Persona natural',61.23,0,25.55,1,'Nunca paga',0,1,No,No
'Persona natural',61.19,25.3,0,0,'Con retraso',0,1,Si,No
'Persona natural',61.17,0,25.54,1,'Nunca paga',0.2,1,No,No
'Persona natural',61.17,0,25.54,1,'Nunca paga',0,1,No,No
'Persona natural',61.14,0,25.53,1,'Nunca paga',0.2,1,No,No
'Persona natural',61.13,25.29,0,0,'Con retraso',0,1,Si,No
'Persona natural',61.11,0,25.52,1,'Nunca paga',0,1,No,No
'Persona natural',61.08,0,25.51,1,'Nunca paga',0,0,No,No
'Persona natural',61.04,0,25.5,1,'Nunca paga',0.2,1,No,No
'Persona natural',60.99,0,25.49,1,'Nunca paga',0,1,No,No
'Persona natural',60.98,0,25.49,1,'Nunca paga',0,1,No,No
'Persona natural',60.97,0,25.49,1,'Nunca paga',0.2,1,No,No
'Persona natural',60.95,0,25.48,1,'Nunca paga',0.2,1,No,No
'Persona natural',60.94,0,0,0,'Nunca paga',0,0,No,No
'Persona natural',60.93,0,25.48,1,'Nunca paga',0.2,1,No,No
'Persona natural',60.91,0,25.47,1,'Nunca paga',0.2,1,No,No
'Persona natural',60.87,0,25.46,1,'Nunca paga',0.2,1,No,No
'Persona natural',60.85,0,25.46,1,'Nunca paga',0.2,1,No,No
'Persona natural',60.82,0,25.45,1,'Nunca paga',0,1,No,No
'Persona natural',60.78,0,25.44,1,'Nunca paga',0.2,1,No,No
'Persona natural',60.76,0,25.43,1,'Nunca paga',0,1,No,No
'Persona natural',60.75,0,25.43,1,'Nunca paga',0.2,1,No,No
'Persona natural',60.74,0,25.43,1,'Nunca paga',0.2,1,No,No
'Persona natural',60.72,0,25.42,1,'Nunca paga',0.2,1,No,No
'Persona natural',60.71,25.18,0,0,'Con retraso',0,1,Si,No
'Persona natural',60.7,0,0,0,'Nunca paga',0.2,0,No,No
'Persona natural',60.69,0,25.42,1,'Nunca paga',0.2,1,No,No
'Persona natural',60.68,0,25.41,1,'Nunca paga',0.2,1,No,No
'Persona natural',60.68,0,25.41,1,'Nunca paga',0,1,No,No
'Persona natural',60.67,0,25.41,1,'Nunca paga',0,1,No,No
'Persona natural',60.65,0,25.41,1,'Nunca paga',0.2,1,No,No
'Persona natural',60.6,0,25.39,1,'Nunca paga',0,1,No,No
'Persona natural',60.6,0,25.39,1,'Nunca paga',0.2,1,No,No
'Persona natural',60.54,0,25.38,1,'Nunca paga',0,1,No,No
'Persona natural',60.54,0,25.38,1,'Nunca paga',0.2,1,No,No
'Persona natural',60.54,0,0,0,'Nunca paga',0.2,0,No,No
'Persona natural',60.53,0,25.38,1,'Nunca paga',0.2,1,No,No
'Persona natural',60.51,0,25.37,1,'Nunca paga',0,1,No,No
'Persona natural',60.51,0,25.37,1,'Nunca paga',0.2,1,No,No
'Persona natural',60.42,0,25.35,1,'Nunca paga',0,1,No,No
'Persona natural',60.42,0,25.35,1,'Nunca paga',0.2,1,No,No
'Persona natural',60.38,0,25.34,1,'Nunca paga',0.2,1,No,No
'Persona natural',60.38,0,25.34,1,'Nunca paga',0,1,No,No
'Persona natural',60.38,25.1,0,0,'Con retraso',0,1,Si,No
'Persona natural',60.33,0,25.33,1,'Nunca paga',0.2,1,No,No
'Persona natural',60.33,0,25.33,1,'Nunca paga',0,1,No,No
'Persona natural',60.33,25.09,0,0,'Con retraso',0,1,Si,No
'Persona natural',60.31,0,25.32,1,'Nunca paga',0,1,No,No
'Persona natural',60.29,0,25.32,1,'Nunca paga',0.2,1,No,No
'Persona natural',60.28,0,25.31,1,'Nunca paga',0.2,1,No,No
'Persona natural',60.25,0,25.31,1,'Nunca paga',0.2,1,No,No
'Persona natural',60.25,0,25.31,1,'Nunca paga',0,1,No,No
'Persona natural',60.24,0,25.3,1,'Nunca paga',0.2,1,No,No
'Persona natural',60.22,25.06,0,0,'Con retraso',0,1,Si,No
'Persona natural',60.21,25.06,0,0,'Con retraso',0,1,Si,No
'Persona natural',60.21,0,25.3,1,'Nunca paga',0.2,1,No,No
'Persona natural',60.2,0,25.29,1,'Nunca paga',0.2,1,No,No
'Persona juridica',60.18,0,25.29,1,'Nunca paga',0,0,No,No
'Persona natural',60.15,0,25.28,1,'Nunca paga',0.2,1,No,No
'Persona natural',60.13,0,25.28,1,'Nunca paga',0.2,1,No,No
'Persona natural',60.11,0,25.27,1,'Nunca paga',0,1,No,No
'Persona natural',60.07,0,25.26,1,'Nunca paga',0.2,1,No,No
'Persona natural',60.05,0,25.26,1,'Nunca paga',0.2,1,No,No
'Persona natural',60.05,15.02,0,0,'Con retraso',0,0,Si,No
'Persona natural',60.04,0,25.25,1,'Nunca paga',0,1,No,No
'Persona natural',60.03,0,25.25,1,'Nunca paga',0,1,No,No
'Persona natural',60.03,0,25.25,1,'Nunca paga',0.2,1,No,No
'Persona natural',60.02,0,25.25,1,'Nunca paga',0,1,No,No
'Persona natural',60.01,0,25.25,1,'Nunca paga',0.2,1,No,No
'Persona natural',60.01,25.01,0,0,'Con retraso',0,1,Si,No
'Persona natural',60.01,0,25.25,1,'Nunca paga',0,1,No,No
'Persona natural',60,25,0,0,'Con retraso',0,1,Si,No
'Persona natural',59.97,0,25.24,1,'Nunca paga',0.2,1,No,No
'Persona natural',59.96,0,25.23,1,'Nunca paga',0,1,No,No
'Persona natural',59.96,0,25.23,1,'Nunca paga',0.2,1,No,No
'Persona natural',59.92,0,0,0,'Nunca paga',0,0,No,No
'Persona natural',59.92,0,25.22,1,'Nunca paga',0,1,No,No
'Persona natural',59.85,0,25.21,1,'Nunca paga',0.2,1,No,No
'Persona juridica',59.85,24.97,0,0,'Con retraso',0,0,Si,No
'Persona natural',59.84,18.25,6.82,1,'Con retraso',0.1,1,Si,Si
'Persona natural',59.84,0,25.2,1,'Nunca paga',0.2,1,No,No
'Persona natural',59.84,0,25.2,1,'Nunca paga',0,1,No,No
'Persona natural',59.82,0,0,0,'Nunca paga',0,0,No,No
'Persona natural',59.81,0,25.2,1,'Nunca paga',0,1,No,No
'Persona natural',59.81,0,25.2,1,'Nunca paga',0.2,1,No,No
'Persona natural',59.76,0,25.18,1,'Nunca paga',0.2,1,No,No
'Persona natural',59.75,0,25.18,1,'Nunca paga',0,1,No,No
'Persona natural',59.63,0,25.15,1,'Nunca paga',0.2,1,No,No
'Persona natural',59.59,0,25.14,1,'Nunca paga',0.2,1,No,No
'Persona natural',59.55,0,25.13,1,'Nunca paga',0,1,No,No
'Persona natural',59.55,0,25.13,1,'Nunca paga',0.2,1,No,No
'Persona natural',59.54,0,25.13,1,'Nunca paga',0.2,1,No,No
'Persona natural',59.53,0,25.13,1,'Nunca paga',0.2,1,No,No
'Persona natural',59.51,0,25.12,1,'Nunca paga',0.2,1,No,No
'Persona natural',59.5,0,25.12,1,'Nunca paga',0.2,1,No,No
'Persona natural',59.48,0,25.11,1,'Nunca paga',0.2,1,No,No
'Persona natural',59.47,24.87,0,0,'Con retraso',0,1,Si,No
'Persona natural',59.41,0,25.1,1,'Nunca paga',0.2,1,No,No
'Persona natural',59.37,0,25.09,1,'Nunca paga',0,1,No,No
'Persona natural',59.37,0,25.09,1,'Nunca paga',0.2,1,No,No
'Persona natural',59.37,24.85,0,0,'Con retraso',0,1,Si,No
'Persona natural',59.35,0,25.08,1,'Nunca paga',0.2,1,No,No
'Persona natural',59.34,24.84,0,0,'Con retraso',0,1,Si,No
'Persona natural',59.34,0,25.08,1,'Nunca paga',0,1,No,No
'Persona natural',59.34,0,25.08,1,'Nunca paga',0.2,1,No,No
'Persona natural',59.33,0,25.08,1,'Nunca paga',0,1,No,No
'Persona natural',59.33,0,25.08,1,'Nunca paga',0.2,1,No,No
'Persona natural',59.32,24.83,0,0,'Con retraso',0,1,Si,No
'Persona natural',59.3,0,25.07,1,'Nunca paga',0.2,1,No,No
'Persona natural',59.3,0,25.07,1,'Nunca paga',0,1,No,No
'Persona natural',59.27,0,25.06,1,'Nunca paga',0,1,No,No
'Persona natural',59.25,0,25.06,1,'Nunca paga',0.2,1,No,No
'Persona natural',59.21,0,25.05,1,'Nunca paga',0.2,1,No,No
'Persona natural',59.2,0,25.04,1,'Nunca paga',0.2,1,No,No
'Persona natural',59.2,0,25.04,1,'Nunca paga',0,1,No,No
'Persona natural',59.18,0,25.04,1,'Nunca paga',0.2,1,No,No
'Persona natural',59.18,0,25.04,1,'Nunca paga',0,1,No,No
'Persona natural',59.15,24.79,0,0,'Con retraso',0,1,Si,No
'Persona natural',59.09,0,25.02,1,'Nunca paga',0.2,1,No,No
'Persona natural',59.06,24.77,0,0,'Con retraso',0,1,Si,No
'Persona natural',59.04,0,24.99,1,'Nunca paga',0.2,1,No,No
'Persona natural',59.03,0,24.99,1,'Nunca paga',0.2,1,No,No
'Persona natural',59.02,24.76,0,0,'Con retraso',0,1,Si,No
'Persona natural',59,0,24.98,1,'Nunca paga',0,1,No,No
'Persona natural',58.97,0,24.98,1,'Nunca paga',0.2,1,No,No
'Persona natural',58.96,0,24.97,1,'Nunca paga',0,1,No,No
'Persona natural',58.91,0,24.96,1,'Nunca paga',0,1,No,No
'Persona natural',58.9,24.73,0,0,'Con retraso',0,1,Si,No
'Persona natural',58.89,0,24.96,1,'Nunca paga',0,1,No,No
'Persona natural',58.88,0,24.95,1,'Nunca paga',0,1,No,No
'Persona natural',58.86,24.72,0,0,'Con retraso',0,1,Si,No
'Persona natural',58.85,0,24.95,1,'Nunca paga',0,1,No,No
'Persona natural',58.85,0,24.95,1,'Nunca paga',0.2,1,No,No
'Persona natural',58.82,0,24.94,1,'Nunca paga',0.2,1,No,No
'Persona natural',58.78,0,24.93,1,'Nunca paga',0,1,No,No
'Persona natural',58.77,0,24.93,1,'Nunca paga',0.2,1,No,No
'Persona natural',58.77,24.7,0,0,'Con retraso',0,1,Si,No
'Persona natural',58.76,0,24.92,1,'Nunca paga',0,1,No,No
'Persona natural',58.74,0,24.92,1,'Nunca paga',0.2,1,No,No
'Persona natural',58.7,0,24.91,1,'Nunca paga',0,1,No,No
'Persona natural',58.69,30.54,0,0,'Con retraso',0,1,Si,No
'Persona natural',58.67,0,24.9,1,'Nunca paga',0.2,1,No,No
'Persona natural',58.63,0,24.89,1,'Nunca paga',0.2,1,No,No
'Persona natural',58.63,0,24.89,1,'Nunca paga',0,1,No,No
'Persona natural',58.6,0,24.88,1,'Nunca paga',0.2,1,No,No
'Persona natural',58.59,0,24.88,1,'Nunca paga',0.2,1,No,No
'Persona natural',58.59,0,24.88,1,'Nunca paga',0,1,No,No
'Persona natural',58.57,0,24.88,1,'Nunca paga',0.2,1,No,No
'Persona natural',58.57,0,24.88,1,'Nunca paga',0,1,No,No
'Persona natural',58.56,0,24.87,1,'Nunca paga',0.2,1,No,No
'Persona natural',58.51,24.63,0,0,'Con retraso',0,1,Si,No
'Persona natural',58.49,0,24.86,1,'Nunca paga',0.2,1,No,No
'Persona natural',58.48,0,24.85,1,'Nunca paga',0.2,1,No,No
'Persona natural',58.46,0,24.85,1,'Nunca paga',0,1,No,No
'Persona natural',58.44,24.61,0,0,'Con retraso',0,1,Si,No
'Persona natural',58.43,0,24.84,1,'Nunca paga',0.2,1,No,No
'Persona natural',58.43,0,24.84,1,'Nunca paga',0,1,No,No
'Persona natural',58.39,0,24.83,1,'Nunca paga',0.2,1,No,No
'Persona natural',58.33,0,24.82,1,'Nunca paga',0.2,1,No,No
'Persona natural',58.3,0,24.81,1,'Nunca paga',0.2,1,No,No
'Persona natural',58.29,0,24.81,1,'Nunca paga',0,1,No,No
'Persona natural',58.25,0,24.8,1,'Nunca paga',0,0,No,No
'Persona natural',58.19,0,24.78,1,'Nunca paga',0,1,No,No
'Persona natural',58.19,0,24.78,1,'Nunca paga',0.2,1,No,No
'Persona natural',58.16,0,24.77,1,'Nunca paga',0,1,No,No
'Persona natural',58.16,0,24.77,1,'Nunca paga',0.2,1,No,No
'Persona natural',58.15,0,24.77,1,'Nunca paga',0,1,No,No
'Persona natural',58.15,0,24.77,1,'Nunca paga',0.2,1,No,No
'Persona natural',58.14,0,24.77,1,'Nunca paga',0.2,1,No,No
'Persona natural',58.14,0,24.77,1,'Nunca paga',0,1,No,No
'Persona natural',58.13,0,0,0,'Nunca paga',0,0,No,No
'Persona natural',58.05,0,24.75,1,'Nunca paga',0.2,1,No,No
'Persona natural',58.05,0,24.75,1,'Nunca paga',0,1,No,No
'Persona natural',58.03,0,24.74,1,'Nunca paga',0.2,1,No,No
'Persona natural',58.01,0,24.74,1,'Nunca paga',0.2,1,No,No
'Persona natural',57.99,0,24.73,1,'Nunca paga',0.2,1,No,No
'Persona natural',57.97,0,24.73,1,'Nunca paga',0.2,1,No,No
'Persona natural',57.94,0,24.72,1,'Nunca paga',0,1,No,No
'Persona natural',57.94,0,24.72,1,'Nunca paga',0.2,1,No,No
'Persona natural',57.93,0,24.72,1,'Nunca paga',0.2,1,No,No
'Persona natural',57.91,0,24.71,1,'Nunca paga',0.2,1,No,No
'Persona natural',57.89,0,24.71,1,'Nunca paga',0,1,No,No
'Persona natural',57.82,0,24.69,1,'Nunca paga',0.2,1,No,No
'Persona natural',57.81,0,24.69,1,'Nunca paga',0.2,1,No,No
'Persona natural',57.8,0,24.68,1,'Nunca paga',0.2,1,No,No
'Persona natural',57.79,0,24.68,1,'Nunca paga',0.2,1,No,No
'Persona natural',57.78,0,24.68,1,'Nunca paga',0.2,1,No,No
'Persona natural',57.73,0,24.67,1,'Nunca paga',0.2,1,No,No
'Persona natural',57.69,0,24.66,1,'Nunca paga',0.2,1,No,No
'Persona natural',57.67,0,24.65,1,'Nunca paga',0.2,1,No,No
'Persona natural',57.66,0,24.65,1,'Nunca paga',0.2,1,No,No
'Persona natural',57.65,0,24.65,1,'Nunca paga',0.2,1,No,No
'Persona natural',57.62,0,24.64,1,'Nunca paga',0.2,1,No,No
'Persona natural',57.59,0,24.63,1,'Nunca paga',0.2,1,No,No
'Persona natural',57.58,0,24.63,1,'Nunca paga',0,1,No,No
'Persona natural',57.58,24.4,0,0,'Con retraso',0,1,Si,No
'Persona natural',57.56,0,24.62,1,'Nunca paga',0.2,1,No,No
'Persona natural',57.54,0,24.62,1,'Nunca paga',0,1,No,No
'Persona natural',57.54,0,24.62,1,'Nunca paga',0.2,1,No,No
'Persona natural',57.51,0,24.61,1,'Nunca paga',0,1,No,No
'Persona natural',57.5,0,24.61,1,'Nunca paga',0,0,No,No
'Persona natural',57.43,0,24.59,1,'Nunca paga',0.2,1,No,No
'Persona natural',57.41,0,24.59,1,'Nunca paga',0.2,1,No,No
'Persona natural',57.39,0,24.58,1,'Nunca paga',0.2,1,No,No
'Persona natural',57.37,0,24.58,1,'Nunca paga',0.2,1,No,No
'Persona natural',57.33,0,24.57,1,'Nunca paga',0.2,1,No,No
'Persona natural',57.24,0,24.54,1,'Nunca paga',0.2,1,No,No
'Persona natural',57.21,0,24.54,1,'Nunca paga',0.2,1,No,No
'Persona natural',57.18,0,24.53,1,'Nunca paga',0.2,1,No,No
'Persona natural',57.17,0,24.53,1,'Nunca paga',0,1,No,No
'Persona natural',57.16,0,24.52,1,'Nunca paga',0,1,No,No
'Persona natural',57.15,0,24.52,1,'Nunca paga',0.2,1,No,No
'Persona natural',57.13,0,24.52,1,'Nunca paga',0.2,1,No,No
'Persona natural',57.12,0,0,0,'Nunca paga',0.2,0,No,No
'Persona natural',57.1,0,24.51,1,'Nunca paga',0.2,1,No,No
'Persona natural',57.06,0,24.5,1,'Nunca paga',0.2,1,No,No
'Persona natural',57.06,0,24.5,1,'Nunca paga',0,0,No,No
'Persona natural',57.05,0,24.5,1,'Nunca paga',0.2,1,No,No
'Persona natural',57.03,24.26,0,0,'Con retraso',0,1,Si,No
'Persona natural',57,0,24.48,1,'Nunca paga',0.2,1,No,No
'Persona natural',57,0,24.48,1,'Nunca paga',0,0,No,No
'Persona natural',57,0,24.48,1,'Nunca paga',0,1,No,No
'Persona natural',57,0,0,0,'Nunca paga',0.2,0,No,No
'Persona natural',56.97,0,24.48,1,'Nunca paga',0,1,No,No
'Persona natural',56.96,0,24.47,1,'Nunca paga',0,1,No,No
'Persona natural',56.96,0,24.47,1,'Nunca paga',0.2,1,No,No
'Persona natural',56.94,0,24.47,1,'Nunca paga',0.2,1,No,No
'Persona natural',56.93,0,24.47,1,'Nunca paga',0.2,1,No,No
'Persona natural',56.9,0,24.46,1,'Nunca paga',0.2,1,No,No
'Persona natural',56.85,0,24.45,1,'Nunca paga',0,1,No,No
'Persona natural',56.84,0,24.44,1,'Nunca paga',0.2,1,No,No
'Persona natural',56.84,0,24.44,1,'Nunca paga',0,1,No,No
'Persona natural',56.8,0,24.43,1,'Nunca paga',0,1,No,No
'Persona natural',56.79,0,24.43,1,'Nunca paga',0.2,1,No,No
'Persona natural',56.78,0,24.43,1,'Nunca paga',0.2,1,No,No
'Persona natural',56.74,0,0,0,'Nunca paga',0,0,No,No
'Persona natural',56.72,0,24.41,1,'Nunca paga',0.2,1,No,No
'Persona natural',56.72,24.18,0,0,'Con retraso',0,1,Si,No
'Persona natural',56.7,24.18,0,0,'Con retraso',0,1,Si,No
'Persona natural',56.68,14.17,0,0,'Con retraso',0,0,Si,No
'Persona natural',56.67,24.17,0,0,'Con retraso',0,1,Si,No
'Persona natural',56.67,0,24.4,1,'Nunca paga',0,1,No,No
'Persona natural',56.65,24.17,0,0,'Con retraso',0,1,Si,No
'Persona natural',56.61,0,24.39,1,'Nunca paga',0.2,1,No,No
'Persona natural',56.58,0,24.37,1,'Nunca paga',0.2,1,No,No
'Persona natural',56.57,0,24.37,1,'Nunca paga',0.2,1,No,No
'Persona natural',56.56,0,24.36,1,'Nunca paga',0,0,No,No
'Persona natural',56.56,0,24.36,1,'Nunca paga',0.2,1,No,No
'Persona natural',56.51,0,24.35,1,'Nunca paga',0.2,1,No,No
'Persona natural',56.41,0,24.33,1,'Nunca paga',0.2,1,No,No
'Persona natural',56.4,0,24.32,1,'Nunca paga',0.2,1,No,No
'Persona natural',56.4,0,24.32,1,'Nunca paga',0,1,No,No
'Persona natural',56.4,0,0,0,'Nunca paga',0,0,No,No
'Persona natural',56.39,0,24.32,1,'Nunca paga',0.2,1,No,No
'Persona natural',56.39,0,24.32,1,'Nunca paga',0,1,No,No
'Persona natural',56.38,0,24.32,1,'Nunca paga',0.2,1,No,No
'Persona natural',56.33,0,24.31,1,'Nunca paga',0.2,1,No,No
'Persona natural',56.33,0,24.31,1,'Nunca paga',0,1,No,No
'Persona natural',56.3,0,24.3,1,'Nunca paga',0.2,1,No,No
'Persona natural',56.29,0,24.3,1,'Nunca paga',0.2,1,No,No
'Persona natural',56.24,0,24.28,1,'Nunca paga',0.2,1,No,No
'Persona natural',56.24,0,24.28,1,'Nunca paga',0,1,No,No
'Persona natural',56.23,0,24.28,1,'Nunca paga',0.2,1,No,No
'Persona natural',56.22,0,24.28,1,'Nunca paga',0,1,No,No
'Persona natural',56.2,0,24.27,1,'Nunca paga',0.2,1,No,No
'Persona natural',56.17,0,24.27,1,'Nunca paga',0.2,1,No,No
'Persona natural',56.16,24.04,0,0,'Con retraso',0,1,Si,No
'Persona natural',56.09,0,24.25,1,'Nunca paga',0,1,No,No
'Persona natural',56.07,0,24.24,1,'Nunca paga',0,1,No,No
'Persona natural',56.05,0,0,0,'Nunca paga',0,0,No,No
'Persona natural',56.04,0,24.23,1,'Nunca paga',0,1,No,No
'Persona natural',56.03,0,24.23,1,'Nunca paga',0,1,No,No
'Persona natural',56.02,0,24.23,1,'Nunca paga',0.2,1,No,No
'Persona natural',56.01,0,24.23,1,'Nunca paga',0.2,1,No,No
'Persona natural',55.99,0,24.22,1,'Nunca paga',0,1,No,No
'Persona natural',55.91,0,24.2,1,'Nunca paga',0,1,No,No
'Persona natural',55.91,0,24.2,1,'Nunca paga',0.2,1,No,No
'Persona natural',55.88,0,24.19,1,'Nunca paga',0,1,No,No
'Persona natural',55.85,0,24.19,1,'Nunca paga',0.2,1,No,No
'Persona natural',55.85,0,24.19,1,'Nunca paga',0,1,No,No
'Persona natural',55.8,0,24.17,1,'Nunca paga',0.2,1,No,No
'Persona natural',55.77,0,24.17,1,'Nunca paga',0,1,No,No
'Persona natural',55.77,0,0,0,'Nunca paga',0.2,0,No,No
'Persona natural',55.76,0,24.16,1,'Nunca paga',0,1,No,No
'Persona natural',55.76,0,24.16,1,'Nunca paga',0.2,1,No,No
'Persona natural',55.75,23.94,0,0,'Con retraso',0,1,Si,No
'Persona natural',55.75,0,24.16,1,'Nunca paga',0.2,1,No,No
'Persona natural',55.75,0,24.16,1,'Nunca paga',0,0,No,No
'Persona natural',55.74,0,24.16,1,'Nunca paga',0.2,1,No,No
'Persona natural',55.73,0,24.16,1,'Nunca paga',0.2,1,No,No
'Persona natural',55.67,0,24.14,1,'Nunca paga',0.2,1,No,No
'Persona natural',55.66,0,24.14,1,'Nunca paga',0.2,1,No,No
'Persona natural',55.64,0,24.13,1,'Nunca paga',0.2,1,No,No
'Persona natural',55.63,0,24.13,1,'Nunca paga',0,1,No,No
'Persona natural',55.61,0,24.13,1,'Nunca paga',0.2,1,No,No
'Persona natural',55.59,0,24.12,1,'Nunca paga',0,1,No,No
'Persona natural',55.57,0,24.12,1,'Nunca paga',0.2,1,No,No
'Persona natural',55.56,0,24.11,1,'Nunca paga',0.2,1,No,No
'Persona natural',55.54,0,24.11,1,'Nunca paga',0.2,1,No,No
'Persona natural',55.5,0,24.1,1,'Nunca paga',0.2,1,No,No
'Persona natural',55.48,0,24.09,1,'Nunca paga',0,1,No,No
'Persona natural',55.47,0,24.09,1,'Nunca paga',0.2,1,No,No
'Persona natural',55.45,0,24.09,1,'Nunca paga',0.2,1,No,No
'Persona natural',55.4,0,24.07,1,'Nunca paga',0.2,1,No,No
'Persona natural',55.38,0,24.07,1,'Nunca paga',0.2,1,No,No
'Persona natural',55.37,0,24.07,1,'Nunca paga',0,1,No,No
'Persona natural',55.37,0,24.07,1,'Nunca paga',0.2,1,No,No
'Persona natural',55.34,0,24.06,1,'Nunca paga',0.2,1,No,No
'Persona natural',55.32,0,24.05,1,'Nunca paga',0.2,1,No,No
'Persona natural',55.31,0,24.05,1,'Nunca paga',0.2,1,No,No
'Persona natural',55.29,0,24.05,1,'Nunca paga',0.2,1,No,No
'Persona natural',55.27,0,24.04,1,'Nunca paga',0.2,1,No,No
'Persona natural',55.15,0,24.01,1,'Nunca paga',0.2,1,No,No
'Persona natural',55.15,0,24.01,1,'Nunca paga',0,1,No,No
'Persona natural',55.14,23.79,0,0,'Con retraso',0,1,Si,No
'Persona natural',55.13,0,24.01,1,'Nunca paga',0.2,1,No,No
'Persona natural',55.09,0,24,1,'Nunca paga',0.2,1,No,No
'Persona natural',55.08,0,23.99,1,'Nunca paga',0.2,1,No,No
'Persona natural',55.08,0,23.99,1,'Nunca paga',0,1,No,No
'Persona natural',55.07,0,23.99,1,'Nunca paga',0.2,1,No,No
'Persona natural',55.06,23.77,0,0,'Con retraso',0,1,Si,No
'Persona natural',55.06,0,23.99,1,'Nunca paga',0.2,1,No,No
'Persona natural',55.03,0,23.98,1,'Nunca paga',0.2,1,No,No
'Persona natural',55.01,0,23.98,1,'Nunca paga',0.2,1,No,No
'Persona natural',54.98,0,23.97,1,'Nunca paga',0,1,No,No
'Persona natural',54.97,0,23.97,1,'Nunca paga',0.2,1,No,No
'Persona natural',54.9,0,23.95,1,'Nunca paga',0.2,1,No,No
'Persona natural',54.88,0,23.94,1,'Nunca paga',0.2,1,No,No
'Persona natural',54.86,0,23.94,1,'Nunca paga',0,1,No,No
'Persona natural',54.84,0,23.93,1,'Nunca paga',0.2,1,No,No
'Persona natural',54.81,0,23.93,1,'Nunca paga',0.2,1,No,No
'Persona natural',54.79,0,23.92,1,'Nunca paga',0.2,1,No,No
'Persona natural',54.74,0,23.91,1,'Nunca paga',0.2,1,No,No
'Persona natural',54.72,0,13.9,1,'Nunca paga',0.2,0,No,No
'Persona natural',54.68,0,23.89,1,'Nunca paga',0,1,No,No
'Persona natural',54.66,23.67,0,0,'Con retraso',0,1,Si,No
'Persona natural',54.65,0,23.89,1,'Nunca paga',0.2,1,No,No
'Persona natural',54.62,23.66,0,0,'Con retraso',0,1,Si,No
'Persona natural',54.61,0,23.88,1,'Nunca paga',0,1,No,No
'Persona natural',54.59,0,23.87,1,'Nunca paga',0,1,No,No
'Persona natural',54.57,0,0,0,'Nunca paga',0.2,0,No,No
'Persona natural',54.5,0,23.85,1,'Nunca paga',0.2,1,No,No
'Persona natural',54.46,0,23.84,1,'Nunca paga',0,1,No,No
'Persona natural',54.43,0,23.83,1,'Nunca paga',0.2,1,No,No
'Persona natural',54.41,0,23.83,1,'Nunca paga',0.2,1,No,No
'Persona natural',54.38,0,23.82,1,'Nunca paga',0.2,1,No,No
'Persona natural',54.35,0,23.81,1,'Nunca paga',0,1,No,No
'Persona natural',54.35,0,23.81,1,'Nunca paga',0.2,1,No,No
'Persona natural',54.35,0,0,0,'Nunca paga',0,0,No,No
'Persona natural',54.34,0,23.81,1,'Nunca paga',0.2,1,No,No
'Persona natural',54.32,0,23.8,1,'Nunca paga',0.2,1,No,No
'Persona natural',54.31,0,23.8,1,'Nunca paga',0,1,No,No
'Persona natural',54.3,0,0,0,'Nunca paga',0,0,No,No
'Persona natural',54.27,0,23.79,1,'Nunca paga',0.2,1,No,No
'Persona natural',54.22,0,23.78,1,'Nunca paga',0.2,1,No,No
'Persona natural',54.21,23.56,0,0,'Con retraso',0,1,Si,No
'Persona natural',54.21,0,23.78,1,'Nunca paga',0.2,1,No,No
'Persona natural',54.2,0,23.77,1,'Nunca paga',0.2,1,No,No
'Persona natural',54.2,0,23.77,1,'Nunca paga',0,0,No,No
'Persona natural',54.19,0,23.77,1,'Nunca paga',0,1,No,No
'Persona natural',54.17,0,23.77,1,'Nunca paga',0.2,1,No,No
'Persona natural',54.16,0,0,0,'Nunca paga',0.2,0,No,No
'Persona natural',54.15,0,23.76,1,'Nunca paga',0.2,1,No,No
'Persona natural',54.15,0,23.76,1,'Nunca paga',0,1,No,No
'Persona natural',54.11,0,23.75,1,'Nunca paga',0,1,No,No
'Persona natural',54.09,0,23.75,1,'Nunca paga',0,1,No,No
'Persona natural',54.09,0,0,0,'Nunca paga',0.2,0,No,No
'Persona natural',54.08,0,23.73,1,'Nunca paga',0.2,1,No,No
'Persona natural',54.08,0,23.73,1,'Nunca paga',0,1,No,No
'Persona natural',54.07,0,23.73,1,'Nunca paga',0.2,1,No,No
'Persona natural',54.05,0,23.73,1,'Nunca paga',0.2,1,No,No
'Persona natural',54.04,23.51,0,0,'Con retraso',0,1,Si,No
'Persona natural',54.02,0,23.72,1,'Nunca paga',0.2,1,No,No
'Persona natural',53.99,0,23.71,1,'Nunca paga',0.2,1,No,No
'Persona natural',53.92,0,23.69,1,'Nunca paga',0,1,No,No
'Persona natural',53.87,0,23.68,1,'Nunca paga',0.2,1,No,No
'Persona natural',53.86,0,23.68,1,'Nunca paga',0.2,1,No,No
'Persona natural',53.85,0,23.68,1,'Nunca paga',0.2,1,No,No
'Persona natural',53.82,0,23.67,1,'Nunca paga',0.2,1,No,No
'Persona natural',53.82,23.46,0,0,'Con retraso',0,1,Si,No
'Persona natural',53.79,0,23.66,1,'Nunca paga',0.2,1,No,No
'Persona natural',53.77,0,23.66,1,'Nunca paga',0,1,No,No
'Persona natural',53.76,0,23.65,1,'Nunca paga',0.2,1,No,No
'Persona natural',53.73,0,23.65,1,'Nunca paga',0.2,1,No,No
'Persona natural',53.7,0,23.64,1,'Nunca paga',0.2,1,No,No
'Persona natural',53.69,0,13.64,1,'Nunca paga',0,0,No,No
'Persona natural',53.68,0,23.63,1,'Nunca paga',0.2,1,No,No
'Persona natural',53.68,23.42,0,0,'Con retraso',0,1,Si,No
'Persona natural',53.68,0,23.63,1,'Nunca paga',0,1,No,No
'Persona natural',53.63,0,23.62,1,'Nunca paga',0.2,1,No,No
'Persona natural',53.63,0,23.62,1,'Nunca paga',0,1,No,No
'Persona natural',53.62,0,23.62,1,'Nunca paga',0,0,No,No
'Persona natural',53.61,0,23.62,1,'Nunca paga',0.2,1,No,No
'Persona natural',53.58,0,23.61,1,'Nunca paga',0.2,1,No,No
'Persona natural',53.49,13.38,0,0,'Con retraso',0,0,Si,No
'Persona natural',53.49,0,23.59,1,'Nunca paga',0.2,1,No,No
'Persona natural',53.47,0,23.58,1,'Nunca paga',0.2,1,No,No
'Persona natural',53.45,0,23.58,1,'Nunca paga',0.2,1,No,No
'Persona natural',53.35,0,23.55,1,'Nunca paga',0.2,1,No,No
'Persona natural',53.32,23.33,0,0,'Con retraso',0,1,Si,No
'Persona natural',53.32,0,23.54,1,'Nunca paga',0.2,1,No,No
'Persona natural',53.32,0,23.54,1,'Nunca paga',0,1,No,No
'Persona natural',53.29,0,23.54,1,'Nunca paga',0,1,No,No
'Persona natural',53.24,0,23.52,1,'Nunca paga',0,1,No,No
'Persona natural',53.2,0,0,0,'Nunca paga',0.2,0,No,No
'Persona natural',53.19,0,23.51,1,'Nunca paga',0,1,No,No
'Persona natural',53.19,0,0,0,'Nunca paga',0,0,No,No
'Persona natural',53.18,0,23.51,1,'Nunca paga',0,1,No,No
'Persona natural',53.1,23.28,0,0,'Con retraso',0,1,Si,No
'Persona natural',53.08,0,23.48,1,'Nunca paga',0.2,1,No,No
'Persona natural',53.05,0,23.48,1,'Nunca paga',0.2,1,No,No
'Persona natural',53,0,23.46,1,'Nunca paga',0.2,1,No,No
'Persona natural',52.96,0,23.45,1,'Nunca paga',0.2,1,No,No
'Persona natural',52.94,0,23.45,1,'Nunca paga',0.2,1,No,No
'Persona natural',52.92,0,23.44,1,'Nunca paga',0.2,1,No,No
'Persona natural',52.91,0,23.44,1,'Nunca paga',0.2,1,No,No
'Persona natural',52.87,0,23.43,1,'Nunca paga',0,1,No,No
'Persona natural',52.87,0,23.43,1,'Nunca paga',0.2,1,No,No
'Persona natural',52.86,0,23.43,1,'Nunca paga',0.2,1,No,No
'Persona natural',52.85,0,23.43,1,'Nunca paga',0,1,No,No
'Persona natural',52.84,0,23.42,1,'Nunca paga',0.2,1,No,No
'Persona natural',52.79,0,23.41,1,'Nunca paga',0.2,1,No,No
'Persona natural',52.77,0,23.41,1,'Nunca paga',0.2,1,No,No
'Persona natural',52.74,0,23.4,1,'Nunca paga',0.2,1,No,No
'Persona natural',52.72,0,23.39,1,'Nunca paga',0.2,1,No,No
'Persona natural',52.67,0,23.38,1,'Nunca paga',0.2,1,No,No
'Persona natural',52.66,0,23.38,1,'Nunca paga',0,1,No,No
'Persona natural',52.64,0,23.37,1,'Nunca paga',0,1,No,No
'Persona natural',52.64,0,23.37,1,'Nunca paga',0.2,1,No,No
'Persona natural',52.6,0,23.36,1,'Nunca paga',0,1,No,No
'Persona natural',52.59,23.15,0,0,'Con retraso',0,1,Si,No
'Persona natural',52.57,0,23.36,1,'Nunca paga',0,1,No,No
'Persona natural',52.53,0,23.35,1,'Nunca paga',0,1,No,No
'Persona natural',52.52,0,23.34,1,'Nunca paga',0.2,1,No,No
'Persona natural',52.52,0,23.34,1,'Nunca paga',0,1,No,No
'Persona natural',52.5,0,23.34,1,'Nunca paga',0.2,1,No,No
'Persona natural',52.49,0,23.34,1,'Nunca paga',0.2,1,No,No
'Persona natural',52.45,0,23.33,1,'Nunca paga',0,1,No,No
'Persona natural',52.44,0,23.32,1,'Nunca paga',0,1,No,No
'Persona natural',52.44,0,23.32,1,'Nunca paga',0.2,1,No,No
'Persona natural',52.42,0,23.32,1,'Nunca paga',0.2,1,No,No
'Persona natural',52.42,0,23.32,1,'Nunca paga',0,1,No,No
'Persona natural',52.41,0,23.32,1,'Nunca paga',0.2,1,No,No
'Persona natural',52.4,0,23.31,1,'Nunca paga',0.2,1,No,No
'Persona natural',52.37,0,23.31,1,'Nunca paga',0.2,1,No,No
'Persona natural',52.35,0,23.3,1,'Nunca paga',0.2,1,No,No
'Persona natural',52.34,0,23.3,1,'Nunca paga',0.2,1,No,No
'Persona natural',52.29,23.08,0,0,'Con retraso',0,1,Si,No
'Persona natural',52.29,0,23.29,1,'Nunca paga',0.2,1,No,No
'Persona natural',52.29,0,23.29,1,'Nunca paga',0,1,No,No
'Persona natural',52.28,0,23.28,1,'Nunca paga',0,1,No,No
'Persona natural',52.28,0,23.28,1,'Nunca paga',0.2,1,No,No
'Persona natural',52.24,0,23.27,1,'Nunca paga',0.2,1,No,No
'Persona natural',52.23,0,23.27,1,'Nunca paga',0.2,1,No,No
'Persona natural',52.21,0,23.27,1,'Nunca paga',0,1,No,No
'Persona natural',52.19,0,23.26,1,'Nunca paga',0,0,No,No
'Persona natural',52.19,0,23.26,1,'Nunca paga',0.2,1,No,No
'Persona natural',52.19,23.05,0,0,'Con retraso',0,1,Si,No
'Persona natural',52.14,0,23.25,1,'Nunca paga',0,1,No,No
'Persona natural',52.12,0,23.24,1,'Nunca paga',0.2,1,No,No
'Persona natural',52.11,0,23.24,1,'Nunca paga',0,1,No,No
'Persona natural',52.08,0,23.23,1,'Nunca paga',0.2,1,No,No
'Persona natural',52.05,0,23.23,1,'Nunca paga',0.2,1,No,No
'Persona natural',52.01,23.01,0,0,'Con retraso',0,1,Si,No
'Persona natural',52.01,0,23.22,1,'Nunca paga',0,1,No,No
'Persona juridica',52,0,23.21,1,'Nunca paga',0,0,No,No
'Persona natural',51.96,23.14,0,0,'Con retraso',0,1,Si,No
'Persona natural',51.95,0,23.2,1,'Nunca paga',0.2,1,No,No
'Persona natural',51.9,0,23.19,1,'Nunca paga',0.2,1,No,No
'Persona natural',51.89,22.98,0,0,'Con retraso',0,1,Si,No
'Persona natural',51.88,0,23.18,1,'Nunca paga',0.2,1,No,No
'Persona natural',51.83,0,23.17,1,'Nunca paga',0.2,1,No,No
'Persona natural',51.82,0,23.17,1,'Nunca paga',0.2,1,No,No
'Persona natural',51.81,0,23.17,1,'Nunca paga',0.2,1,No,No
'Persona natural',51.8,0,23.16,1,'Nunca paga',0.2,1,No,No
'Persona natural',51.79,0,23.16,1,'Nunca paga',0.2,1,No,No
'Persona natural',51.75,0,23.15,1,'Nunca paga',0.2,1,No,No
'Persona natural',51.72,0,23.14,1,'Nunca paga',0.2,1,No,No
'Persona natural',51.71,0,23.14,1,'Nunca paga',0.2,1,No,No
'Persona natural',51.68,0,0,0,'Nunca paga',0.2,0,No,No
'Persona natural',51.66,0,23.13,1,'Nunca paga',0,1,No,No
'Persona natural',51.64,0,23.12,1,'Nunca paga',0.2,1,No,No
'Persona natural',51.64,0,23.12,1,'Nunca paga',0,1,No,No
'Persona natural',51.63,0,23.12,1,'Nunca paga',0,1,No,No
'Persona natural',51.63,0,23.12,1,'Nunca paga',0.2,1,No,No
'Persona natural',51.59,0,23.11,1,'Nunca paga',0.2,1,No,No
'Persona natural',51.56,0,23.09,1,'Nunca paga',0,1,No,No
'Persona natural',51.55,0,23.09,1,'Nunca paga',0.2,1,No,No
'Persona natural',51.55,0,23.09,1,'Nunca paga',0,1,No,No
'Persona natural',51.54,0,23.09,1,'Nunca paga',0.2,1,No,No
'Persona natural',51.54,0,23.09,1,'Nunca paga',0,1,No,No
'Persona natural',51.49,0,23.08,1,'Nunca paga',0.2,1,No,No
'Persona natural',51.48,0,23.07,1,'Nunca paga',0,1,No,No
'Persona natural',51.46,0,23.07,1,'Nunca paga',0.2,1,No,No
'Persona natural',51.37,0,23.05,1,'Nunca paga',0.2,1,No,No
'Persona natural',51.35,0,23.04,1,'Nunca paga',0,1,No,No
'Persona natural',51.32,0,23.03,1,'Nunca paga',0.2,1,No,No
'Persona natural',51.31,0,23.03,1,'Nunca paga',0.2,1,No,No
'Persona natural',51.31,0,23.03,1,'Nunca paga',0,1,No,No
'Persona natural',51.3,0,23.03,1,'Nunca paga',0.2,1,No,No
'Persona natural',51.3,0,23.03,1,'Nunca paga',0,1,No,No
'Persona natural',51.3,12.83,0,0,'Con retraso',0,0,Si,No
'Persona natural',51.29,22.83,0,0,'Con retraso',0,1,Si,No
'Persona natural',51.28,0,23.02,1,'Nunca paga',0.2,1,No,No
'Persona natural',51.28,22.82,0,0,'Con retraso',0,1,Si,No
'Persona natural',51.26,0,13.02,1,'Nunca paga',0.2,0,No,No
'Persona natural',51.26,0,23.02,1,'Nunca paga',0.2,1,No,No
'Persona natural',51.16,0,22.99,1,'Nunca paga',0,1,No,No
'Persona natural',51.15,0,22.99,1,'Nunca paga',0.2,1,No,No
'Persona natural',51.12,0,22.98,1,'Nunca paga',0.2,1,No,No
'Persona natural',51.08,0,22.97,1,'Nunca paga',0.2,1,No,No
'Persona natural',51.05,0,22.97,1,'Nunca paga',0.2,1,No,No
'Persona natural',51.04,0,22.96,1,'Nunca paga',0.2,1,No,No
'Persona natural',51.03,0,22.96,1,'Nunca paga',0.2,1,No,No
'Persona natural',51.01,0,22.96,1,'Nunca paga',0,1,No,No
'Persona natural',51.01,0,22.96,1,'Nunca paga',0.2,1,No,No
'Persona natural',51.01,22.76,0,0,'Con retraso',0,1,Si,No
'Persona natural',51,0,22.95,1,'Nunca paga',0.2,1,No,No
'Persona natural',50.98,0,22.95,1,'Nunca paga',0.2,1,No,No
'Persona natural',50.95,22.74,0,0,'Con retraso',0,1,Si,No
'Persona natural',50.94,0,22.94,1,'Nunca paga',0,1,No,No
'Persona natural',50.94,0,22.94,1,'Nunca paga',0.2,1,No,No
'Persona natural',50.93,22.89,0,0,'Con retraso',0,1,Si,No
'Persona natural',50.92,0,22.93,1,'Nunca paga',0,1,No,No
'Persona natural',50.81,0,22.91,1,'Nunca paga',0,1,No,No
'Persona natural',50.8,0,22.9,1,'Nunca paga',0.2,1,No,No
'Persona natural',50.79,0,22.9,1,'Nunca paga',0.2,1,No,No
'Persona natural',50.79,0,22.9,1,'Nunca paga',0,1,No,No
'Persona natural',50.79,0,22.9,1,'Nunca paga',0,0,No,No
'Persona natural',50.79,0,0,0,'Nunca paga',0.2,0,No,No
'Persona natural',50.75,0,22.89,1,'Nunca paga',0,1,No,No
'Persona natural',50.75,0,22.89,1,'Nunca paga',0.2,1,No,No
'Persona natural',50.75,0,12.89,1,'Nunca paga',0.2,0,No,No
'Persona natural',50.74,0,22.89,1,'Nunca paga',0,1,No,No
'Persona natural',50.73,0,22.89,1,'Nunca paga',0.2,1,No,No
'Persona natural',50.71,0,22.88,1,'Nunca paga',0.2,1,No,No
'Persona natural',50.71,0,22.88,1,'Nunca paga',0,1,No,No
'Persona natural',50.71,0,0,0,'Nunca paga',0.2,0,No,No
'Persona natural',50.7,0,22.88,1,'Nunca paga',0,1,No,No
'Persona natural',50.68,0,22.87,1,'Nunca paga',0,1,No,No
'Persona natural',50.67,0,22.87,1,'Nunca paga',0,1,No,No
'Persona natural',50.65,0,22.87,1,'Nunca paga',0.2,1,No,No
'Persona natural',50.62,22.66,0,0,'Con retraso',0,1,Si,No
'Persona natural',50.61,0,22.86,1,'Nunca paga',0,1,No,No
'Persona natural',50.61,0,22.86,1,'Nunca paga',0.2,1,No,No
'Persona natural',50.6,0,22.85,1,'Nunca paga',0.2,1,No,No
'Persona natural',50.59,0,22.85,1,'Nunca paga',0.2,1,No,No
'Persona natural',50.52,0,22.83,1,'Nunca paga',0.2,1,No,No
'Persona natural',50.46,0,22.82,1,'Nunca paga',0.2,1,No,No
'Persona natural',50.45,0,0,0,'Nunca paga',0,0,No,No
'Persona natural',50.45,0,22.82,1,'Nunca paga',0.2,1,No,No
'Persona natural',50.45,0,22.82,1,'Nunca paga',0,1,No,No
'Persona natural',50.44,0,22.81,1,'Nunca paga',0,1,No,No
'Persona natural',50.43,0,22.81,1,'Nunca paga',0.2,1,No,No
'Persona natural',50.42,0,22.81,1,'Nunca paga',0,1,No,No
'Persona natural',50.41,0,22.81,1,'Nunca paga',0,0,No,No
'Persona natural',50.41,0,22.81,1,'Nunca paga',0.2,1,No,No
'Persona natural',50.4,22.6,0,0,'Con retraso',0,1,Si,No
'Persona natural',50.39,0,22.8,1,'Nunca paga',0.2,1,No,No
'Persona natural',50.37,0,22.8,1,'Nunca paga',0.2,1,No,No
'Persona natural',50.32,0,22.78,1,'Nunca paga',0,1,No,No
'Persona natural',50.3,0,22.78,1,'Nunca paga',0.2,1,No,No
'Persona natural',50.28,0,22.77,1,'Nunca paga',0,0,No,No
'Persona natural',50.26,0,22.77,1,'Nunca paga',0.2,1,No,No
'Persona natural',50.25,0,22.77,1,'Nunca paga',0.2,1,No,No
'Persona natural',50.24,0,22.76,1,'Nunca paga',0.2,1,No,No
'Persona natural',50.17,0,22.75,1,'Nunca paga',0,1,No,No
'Persona natural',50.16,0,22.74,1,'Nunca paga',0.2,1,No,No
'Persona natural',50.15,0,22.74,1,'Nunca paga',0.2,1,No,No
'Persona natural',50.11,0,22.73,1,'Nunca paga',0,1,No,No
'Persona natural',50.08,0,22.72,1,'Nunca paga',0,1,No,No
'Persona natural',50.08,0,0,0,'Nunca paga',0.2,0,No,No
'Persona natural',50.07,0,22.72,1,'Nunca paga',0.2,1,No,No
'Persona natural',50.05,0,22.72,1,'Nunca paga',0,1,No,No
'Persona natural',50,0,22.7,1,'Nunca paga',0.2,1,No,No
'Persona natural',49.98,0,22.7,1,'Nunca paga',0,1,No,No
'Persona natural',49.92,0,22.68,1,'Nunca paga',0.2,1,No,No
'Persona natural',49.9,0,22.68,1,'Nunca paga',0,1,No,No
'Persona natural',49.89,0,22.68,1,'Nunca paga',0,1,No,No
'Persona natural',49.87,0,22.67,1,'Nunca paga',0.2,1,No,No
'Persona natural',49.86,0,22.67,1,'Nunca paga',0,1,No,No
'Persona natural',49.85,0,22.67,1,'Nunca paga',0.2,1,No,No
'Persona natural',49.84,0,22.66,1,'Nunca paga',0.2,1,No,No
'Persona natural',49.83,0,0,0,'Nunca paga',0,0,No,No
'Persona natural',49.82,0,22.66,1,'Nunca paga',0,1,No,No
'Persona natural',49.82,0,22.66,1,'Nunca paga',0.2,1,No,No
'Persona natural',49.8,0,22.65,1,'Nunca paga',0.2,1,No,No
'Persona natural',49.73,0,12.64,1,'Nunca paga',0.2,0,No,No
'Persona natural',49.72,0,22.63,1,'Nunca paga',0,1,No,No
'Persona natural',49.68,0,22.62,1,'Nunca paga',0.2,1,No,No
'Persona natural',49.67,0,22.62,1,'Nunca paga',0.2,1,No,No
'Persona natural',49.66,0,22.62,1,'Nunca paga',0.2,1,No,No
'Persona natural',49.65,0,22.62,1,'Nunca paga',0,0,No,No
'Persona natural',49.62,0,22.61,1,'Nunca paga',0.2,1,No,No
'Persona natural',49.58,0,22.6,1,'Nunca paga',0.2,1,No,No
'Persona natural',49.57,0,22.6,1,'Nunca paga',0.2,1,No,No
'Persona natural',49.56,0,22.59,1,'Nunca paga',0,1,No,No
'Persona natural',49.56,0,22.59,1,'Nunca paga',0.2,1,No,No
'Persona natural',49.55,22.39,0,0,'Con retraso',0,1,Si,No
'Persona natural',49.55,0,22.59,1,'Nunca paga',0.2,1,No,No
'Persona natural',49.54,0,0,0,'Nunca paga',0,0,No,No
'Persona natural',49.54,0,22.59,1,'Nunca paga',0.2,1,No,No
'Persona natural',49.54,22.39,0,0,'Con retraso',0,1,Si,No
'Persona natural',49.53,0,22.59,1,'Nunca paga',0.2,1,No,No
'Persona natural',49.48,0,22.57,1,'Nunca paga',0,1,No,No
'Persona natural',49.44,0,22.56,1,'Nunca paga',0.2,1,No,No
'Persona natural',49.35,0,22.54,1,'Nunca paga',0.2,1,No,No
'Persona natural',49.33,0,22.54,1,'Nunca paga',0,1,No,No
'Persona natural',49.3,0,0,0,'Nunca paga',0,0,No,No
'Persona natural',49.27,0,22.52,1,'Nunca paga',0,1,No,No
'Persona natural',49.27,0,22.52,1,'Nunca paga',0.2,1,No,No
'Persona natural',49.23,0,22.51,1,'Nunca paga',0,1,No,No
'Persona natural',49.21,0,22.51,1,'Nunca paga',0.2,1,No,No
'Persona natural',49.21,0,22.51,1,'Nunca paga',0,1,No,No
'Persona natural',49.2,0,22.5,1,'Nunca paga',0,1,No,No
'Persona natural',49.18,0,22.5,1,'Nunca paga',0.2,1,No,No
'Persona natural',49.17,0,22.5,1,'Nunca paga',0.2,1,No,No
'Persona natural',49.16,0,22.49,1,'Nunca paga',0.2,1,No,No
'Persona natural',49.15,0,12.49,1,'Nunca paga',0.2,0,No,No
'Persona natural',49.12,0,22.48,1,'Nunca paga',0.2,1,No,No
'Persona natural',49.1,0,22.48,1,'Nunca paga',0.2,1,No,No
'Persona natural',49.08,0,22.47,1,'Nunca paga',0.2,1,No,No
'Persona natural',49.07,0,22.47,1,'Nunca paga',0.2,1,No,No
'Persona natural',49.06,0,22.47,1,'Nunca paga',0,1,No,No
'Persona natural',49.06,0,22.47,1,'Nunca paga',0.2,1,No,No
'Persona natural',49.05,0,22.47,1,'Nunca paga',0.2,1,No,No
'Persona natural',49.02,0,22.45,1,'Nunca paga',0.2,1,No,No
'Persona natural',49.01,0,22.45,1,'Nunca paga',0,1,No,No
'Persona natural',48.98,0,22.44,1,'Nunca paga',0.2,1,No,No
'Persona natural',48.96,0,22.43,1,'Nunca paga',0.2,1,No,No
'Persona natural',48.94,0,22.43,1,'Nunca paga',0.2,1,No,No
'Persona natural',48.92,0,22.42,1,'Nunca paga',0,1,No,No
'Persona natural',48.91,0,22.42,1,'Nunca paga',0.2,1,No,No
'Persona natural',48.89,0,22.42,1,'Nunca paga',0,1,No,No
'Persona natural',48.85,0,22.41,1,'Nunca paga',0.2,1,No,No
'Persona natural',48.83,0,22.4,1,'Nunca paga',0,1,No,No
'Persona natural',48.81,0,22.4,1,'Nunca paga',0.2,1,No,No
'Persona natural',48.79,0,22.39,1,'Nunca paga',0.2,1,No,No
'Persona natural',48.79,0,22.39,1,'Nunca paga',0,1,No,No
'Persona natural',48.78,22.2,0,0,'Con retraso',0,1,Si,No
'Persona natural',48.77,0,22.39,1,'Nunca paga',0.2,1,No,No
'Persona natural',48.74,0,22.38,1,'Nunca paga',0.2,1,No,No
'Persona natural',48.72,0,22.37,1,'Nunca paga',0.2,1,No,No
'Persona natural',48.69,0,22.37,1,'Nunca paga',0.2,1,No,No
'Persona natural',48.68,0,22.36,1,'Nunca paga',0.2,1,No,No
'Persona natural',48.62,12.16,0,0,'Con retraso',0,0,Si,No
'Persona natural',48.6,22.15,0,0,'Con retraso',0,1,Si,No
'Persona natural',48.59,0,22.34,1,'Nunca paga',0.2,1,No,No
'Persona natural',48.58,0,22.34,1,'Nunca paga',0.2,1,No,No
'Persona natural',48.51,0,22.32,1,'Nunca paga',0.2,1,No,No
'Persona natural',48.47,0,22.31,1,'Nunca paga',0.2,1,No,No
'Persona natural',48.46,0,22.31,1,'Nunca paga',0,1,No,No
'Persona natural',48.45,0,22.31,1,'Nunca paga',0,1,No,No
'Persona natural',48.45,0,22.31,1,'Nunca paga',0.2,1,No,No
'Persona natural',48.44,22.11,0,0,'Con retraso',0,1,Si,No
'Persona natural',48.43,0,22.3,1,'Nunca paga',0.2,1,No,No
'Persona natural',48.42,0,22.3,1,'Nunca paga',0.2,1,No,No
'Persona natural',48.41,0,22.3,1,'Nunca paga',0,1,No,No
'Persona natural',48.4,0,22.29,1,'Nunca paga',0,1,No,No
'Persona natural',48.38,0,22.29,1,'Nunca paga',0.2,1,No,No
'Persona natural',48.36,0,22.28,1,'Nunca paga',0,1,No,No
'Persona natural',48.35,22.09,0,0,'Con retraso',0,1,Si,No
'Persona natural',48.32,0,0,0,'Nunca paga',0,0,No,No
'Persona natural',48.3,0,22.27,1,'Nunca paga',0.2,1,No,No
'Persona natural',48.29,0,22.27,1,'Nunca paga',0,1,No,No
'Persona natural',48.28,0,22.26,1,'Nunca paga',0.2,1,No,No
'Persona natural',48.27,0,22.26,1,'Nunca paga',0,1,No,No
'Persona natural',48.27,0,22.26,1,'Nunca paga',0.2,1,No,No
'Persona natural',48.26,0,22.26,1,'Nunca paga',0.2,1,No,No
'Persona natural',48.23,0,22.25,1,'Nunca paga',0.2,1,No,No
'Persona natural',48.22,0,22.25,1,'Nunca paga',0.2,1,No,No
'Persona natural',48.19,22.05,0,0,'Con retraso',0,1,Si,No
'Persona natural',48.13,0,22.23,1,'Nunca paga',0.2,1,No,No
'Persona natural',48.12,22.03,0,0,'Con retraso',0,1,Si,No
'Persona natural',48.09,0,22.22,1,'Nunca paga',0.2,1,No,No
'Persona natural',48.07,0,22.21,1,'Nunca paga',0,1,No,No
'Persona natural',48.07,22.02,0,0,'Con retraso',0,1,Si,No
'Persona natural',48.05,0,22.21,1,'Nunca paga',0.2,1,No,No
'Persona natural',48.02,0,22.2,1,'Nunca paga',0.2,1,No,No
'Persona natural',48.01,0,0,0,'Nunca paga',0.2,0,No,No
'Persona natural',47.99,22,0,0,'Con retraso',0,1,Si,No
'Persona natural',47.98,0,22.19,1,'Nunca paga',0.2,1,No,No
'Persona natural',47.88,0,22.16,1,'Nunca paga',0,1,No,No
'Persona natural',47.88,0,22.16,1,'Nunca paga',0.2,1,No,No
'Persona natural',47.88,0,12.16,1,'Nunca paga',0,0,No,No
'Persona natural',47.87,0,22.16,1,'Nunca paga',0.2,1,No,No
'Persona natural',47.85,0,22.16,1,'Nunca paga',0.2,1,No,No
'Persona natural',47.83,21.96,0,0,'Con retraso',0,1,Si,No
'Persona natural',47.8,21.95,0,0,'Con retraso',0,1,Si,No
'Persona natural',47.78,0,22.14,1,'Nunca paga',0,1,No,No
'Persona natural',47.78,0,22.14,1,'Nunca paga',0.2,1,No,No
'Persona natural',47.76,0,22.13,1,'Nunca paga',0.2,1,No,No
'Persona natural',47.75,0,22.13,1,'Nunca paga',0.2,1,No,No
'Persona natural',47.73,0,22.13,1,'Nunca paga',0.2,1,No,No
'Persona natural',47.73,0,22.13,1,'Nunca paga',0,1,No,No
'Persona natural',47.71,0,22.12,1,'Nunca paga',0.2,1,No,No
'Persona natural',47.64,0,22.1,1,'Nunca paga',0.2,1,No,No
'Persona natural',47.63,0,22.1,1,'Nunca paga',0,1,No,No
'Persona natural',47.62,0,22.1,1,'Nunca paga',0.2,1,No,No
'Persona natural',47.61,0,22.1,1,'Nunca paga',0.2,1,No,No
'Persona natural',47.6,0,22.09,1,'Nunca paga',0,1,No,No
'Persona natural',47.55,0,22.08,1,'Nunca paga',0,1,No,No
'Persona natural',47.54,21.89,0,0,'Con retraso',0,1,Si,No
'Persona natural',47.53,0,22.08,1,'Nunca paga',0,1,No,No
'Persona natural',47.5,0,22.07,1,'Nunca paga',0.2,1,No,No
'Persona natural',47.45,0,22.06,1,'Nunca paga',0,1,No,No
'Persona natural',47.42,21.86,0,0,'Con retraso',0,1,Si,No
'Persona natural',47.41,0,22.05,1,'Nunca paga',0.2,1,No,No
'Persona natural',47.37,0,22.04,1,'Nunca paga',0,1,No,No
'Persona natural',47.35,0,22.03,1,'Nunca paga',0,1,No,No
'Persona natural',47.35,0,22.03,1,'Nunca paga',0.2,1,No,No
'Persona natural',47.3,21.83,0,0,'Con retraso',0,1,Si,No
'Persona natural',47.29,0,22.02,1,'Nunca paga',0.2,1,No,No
'Persona natural',47.27,0,22.01,1,'Nunca paga',0.2,1,No,No
'Persona natural',47.22,0,22,1,'Nunca paga',0.2,1,No,No
'Persona natural',47.21,0,22,1,'Nunca paga',0.2,1,No,No
'Persona natural',47.2,0,21.99,1,'Nunca paga',0.2,1,No,No
'Persona natural',47.18,0,21.99,1,'Nunca paga',0.2,1,No,No
'Persona natural',47.14,0,21.98,1,'Nunca paga',0.2,1,No,No
'Persona natural',47.13,0,21.98,1,'Nunca paga',0,1,No,No
'Persona natural',47.08,21.77,0,0,'Con retraso',0,1,Si,No
'Persona natural',47.08,0,21.96,1,'Nunca paga',0,1,No,No
'Persona natural',47.07,0,21.96,1,'Nunca paga',0.2,1,No,No
'Persona natural',47.06,0,21.96,1,'Nunca paga',0.2,1,No,No
'Persona natural',47.05,0,21.96,1,'Nunca paga',0.2,1,No,No
'Persona natural',47.04,0,21.95,1,'Nunca paga',0.2,1,No,No
'Persona natural',47.02,21.76,0,0,'Con retraso',0,1,Si,No
'Persona natural',46.95,0,21.93,1,'Nunca paga',0.2,1,No,No
'Persona natural',46.94,0,21.93,1,'Nunca paga',0.2,1,No,No
'Persona natural',46.92,0,21.92,1,'Nunca paga',0.2,1,No,No
'Persona natural',46.88,0,21.91,1,'Nunca paga',0.2,1,No,No
'Persona natural',46.86,0,21.91,1,'Nunca paga',0.2,1,No,No
'Persona natural',46.85,0,21.91,1,'Nunca paga',0,0,No,No
'Persona natural',46.84,0,21.9,1,'Nunca paga',0.2,1,No,No
'Persona natural',46.82,0,21.9,1,'Nunca paga',0.2,1,No,No
'Persona natural',46.81,0,21.9,1,'Nunca paga',0.2,1,No,No
'Persona natural',46.77,0,21.89,1,'Nunca paga',0,1,No,No
'Persona natural',46.75,0,21.88,1,'Nunca paga',0,1,No,No
'Persona natural',46.74,0,21.88,1,'Nunca paga',0.2,1,No,No
'Persona natural',46.71,0,21.87,1,'Nunca paga',0.2,1,No,No
'Persona natural',46.7,0,21.87,1,'Nunca paga',0.2,1,No,No
'Persona natural',46.7,21.68,0,0,'Con retraso',0,1,Si,No
'Persona natural',46.68,0,21.86,1,'Nunca paga',0,1,No,No
'Persona natural',46.65,0,21.86,1,'Nunca paga',0.2,1,No,No
'Persona natural',46.64,0,21.85,1,'Nunca paga',0.2,1,No,No
'Persona natural',46.61,21.66,0,0,'Con retraso',0,1,Si,No
'Persona natural',46.6,0,21.84,1,'Nunca paga',0.2,1,No,No
'Persona natural',46.6,0,21.84,1,'Nunca paga',0,1,No,No
'Persona natural',46.58,0,21.84,1,'Nunca paga',0.2,1,No,No
'Persona natural',46.56,0,21.83,1,'Nunca paga',0.2,1,No,No
'Persona natural',46.54,0,21.83,1,'Nunca paga',0,1,No,No
'Persona natural',46.53,0,21.83,1,'Nunca paga',0.2,1,No,No
'Persona natural',46.52,0,21.81,1,'Nunca paga',0.2,1,No,No
'Persona natural',46.51,0,21.81,1,'Nunca paga',0,1,No,No
'Persona natural',46.49,21.63,0,0,'Con retraso',0,1,Si,No
'Persona natural',46.48,0,21.8,1,'Nunca paga',0.2,1,No,No
'Persona natural',46.47,0,21.8,1,'Nunca paga',0.2,1,No,No
'Persona natural',46.46,0,21.8,1,'Nunca paga',0.2,1,No,No
'Persona natural',46.45,0,21.8,1,'Nunca paga',0.2,1,No,No
'Persona natural',46.44,0,21.79,1,'Nunca paga',0.2,1,No,No
'Persona natural',46.41,0,21.79,1,'Nunca paga',0.2,1,No,No
'Persona natural',46.27,21.71,0,0,'Con retraso',0,1,Si,No
'Persona natural',46.25,0,21.75,1,'Nunca paga',0,1,No,No
'Persona natural',46.25,0,21.75,1,'Nunca paga',0.2,1,No,No
'Persona natural',46.24,0,21.74,1,'Nunca paga',0.2,1,No,No
'Persona natural',46.2,0,21.73,1,'Nunca paga',0,1,No,No
'Persona natural',46.19,0,21.73,1,'Nunca paga',0,1,No,No
'Persona natural',46.18,0,21.73,1,'Nunca paga',0,1,No,No
'Persona natural',46.17,0,21.73,1,'Nunca paga',0.2,1,No,No
'Persona natural',46.13,0,21.72,1,'Nunca paga',0.2,1,No,No
'Persona natural',46.12,0,21.71,1,'Nunca paga',0.2,1,No,No
'Persona natural',46.11,0,21.71,1,'Nunca paga',0.2,1,No,No
'Persona natural',46.1,0,21.71,1,'Nunca paga',0.2,1,No,No
'Persona natural',46.06,0,21.7,1,'Nunca paga',0,1,No,No
'Persona natural',46.05,0,21.7,1,'Nunca paga',0.2,1,No,No
'Persona natural',46.04,0,21.69,1,'Nunca paga',0.2,1,No,No
'Persona natural',46.01,0,21.69,1,'Nunca paga',0.2,1,No,No
'Persona natural',46,0,21.68,1,'Nunca paga',0.2,1,No,No
'Persona natural',45.94,0,21.67,1,'Nunca paga',0.2,1,No,No
'Persona natural',45.9,0,21.66,1,'Nunca paga',0,1,No,No
'Persona natural',45.87,0,21.65,1,'Nunca paga',0.2,1,No,No
'Persona natural',45.84,0,21.64,1,'Nunca paga',0.2,1,No,No
'Persona natural',45.83,21.46,0,0,'Con retraso',0,1,Si,No
'Persona natural',45.81,0,21.64,1,'Nunca paga',0.2,1,No,No
'Persona natural',45.8,0,21.63,1,'Nunca paga',0.2,1,No,No
'Persona natural',45.79,21.45,0,0,'Con retraso',0,1,Si,No
'Persona natural',45.79,0,21.63,1,'Nunca paga',0.2,1,No,No
'Persona natural',45.76,0,21.62,1,'Nunca paga',0.2,1,No,No
'Persona natural',45.7,0,21.61,1,'Nunca paga',0,1,No,No
'Persona natural',45.68,0,0,0,'Nunca paga',0.2,0,No,No
'Persona natural',45.61,0,21.59,1,'Nunca paga',0.2,1,No,No
'Persona natural',45.6,0,21.58,1,'Nunca paga',0.2,1,No,No
'Persona natural',45.59,0,21.58,1,'Nunca paga',0.2,1,No,No
'Persona natural',45.58,0,21.58,1,'Nunca paga',0,1,No,No
'Persona natural',45.58,0,21.58,1,'Nunca paga',0.2,1,No,No
'Persona natural',45.56,0,21.57,1,'Nunca paga',0.2,1,No,No
'Persona natural',45.55,0,21.57,1,'Nunca paga',0.2,1,No,No
'Persona natural',45.53,0,21.57,1,'Nunca paga',0.2,1,No,No
'Persona natural',45.51,0,21.56,1,'Nunca paga',0,1,No,No
'Persona natural',45.48,0,21.55,1,'Nunca paga',0.2,1,No,No
'Persona natural',45.48,0,0,0,'Nunca paga',0.2,0,No,No
'Persona natural',45.44,0,21.54,1,'Nunca paga',0,1,No,No
'Persona natural',45.44,0,21.54,1,'Nunca paga',0.2,1,No,No
'Persona natural',45.41,0,21.54,1,'Nunca paga',0,1,No,No
'Persona natural',45.41,0,21.54,1,'Nunca paga',0.2,1,No,No
'Persona natural',45.4,0,21.53,1,'Nunca paga',0.2,1,No,No
'Persona natural',45.38,0,21.53,1,'Nunca paga',0.2,1,No,No
'Persona natural',45.34,0,21.52,1,'Nunca paga',0,1,No,No
'Persona natural',45.31,0,21.51,1,'Nunca paga',0,1,No,No
'Persona natural',45.31,0,21.51,1,'Nunca paga',0.2,1,No,No
'Persona natural',45.27,0,21.5,1,'Nunca paga',0.2,1,No,No
'Persona natural',45.21,0,21.49,1,'Nunca paga',0.2,1,No,No
'Persona natural',45.07,0,21.45,1,'Nunca paga',0.2,1,No,No
'Persona natural',45.03,0,21.44,1,'Nunca paga',0.2,1,No,No
'Persona natural',45.03,21.26,0,0,'Con retraso',0,1,Si,No
'Persona natural',45.02,0,21.44,1,'Nunca paga',0.2,1,No,No
'Persona natural',45.01,0,21.44,1,'Nunca paga',0.2,1,No,No
'Persona natural',45.01,0,21.44,1,'Nunca paga',0,0,No,No
'Persona natural',44.97,21.25,0,0,'Con retraso',0,1,Si,No
'Persona natural',44.97,0,21.43,1,'Nunca paga',0.2,1,No,No
'Persona natural',44.96,0,21.42,1,'Nunca paga',0.2,1,No,No
'Persona natural',44.95,0,21.42,1,'Nunca paga',0.2,1,No,No
'Persona natural',44.92,0,21.41,1,'Nunca paga',0.2,1,No,No
'Persona natural',44.88,0,21.4,1,'Nunca paga',0,1,No,No
'Persona natural',44.88,0,21.4,1,'Nunca paga',0.2,1,No,No
'Persona natural',44.86,21.22,0,0,'Con retraso',0,1,Si,No
'Persona natural',44.83,0,21.39,1,'Nunca paga',0,1,No,No
'Persona natural',44.81,0,21.39,1,'Nunca paga',0.2,1,No,No
'Persona natural',44.8,0,21.38,1,'Nunca paga',0.2,1,No,No
'Persona natural',44.74,0,21.37,1,'Nunca paga',0,1,No,No
'Persona natural',44.72,0,21.36,1,'Nunca paga',0.2,1,No,No
'Persona natural',44.71,0,21.36,1,'Nunca paga',0,1,No,No
'Persona natural',44.69,0,21.36,1,'Nunca paga',0.2,1,No,No
'Persona natural',44.68,0,21.35,1,'Nunca paga',0.2,1,No,No
'Persona natural',44.67,0,21.35,1,'Nunca paga',0.2,1,No,No
'Persona natural',44.64,0,21.34,1,'Nunca paga',0,1,No,No
'Persona natural',44.63,0,21.34,1,'Nunca paga',0.2,1,No,No
'Persona natural',44.62,0,21.34,1,'Nunca paga',0.2,1,No,No
'Persona natural',44.61,0,21.34,1,'Nunca paga',0,1,No,No
'Persona natural',44.6,0,21.33,1,'Nunca paga',0.2,1,No,No
'Persona natural',44.58,0,21.33,1,'Nunca paga',0.2,1,No,No
'Persona natural',44.56,0,21.32,1,'Nunca paga',0,1,No,No
'Persona natural',44.56,0,21.32,1,'Nunca paga',0.2,1,No,No
'Persona natural',44.55,0,21.32,1,'Nunca paga',0.2,1,No,No
'Persona natural',44.52,0,21.31,1,'Nunca paga',0,1,No,No
'Persona natural',44.51,0,21.31,1,'Nunca paga',0,1,No,No
'Persona natural',44.51,21.13,0,0,'Con retraso',0,1,Si,No
'Persona natural',44.49,0,21.31,1,'Nunca paga',0.2,1,No,No
'Persona natural',44.48,0,0,0,'Nunca paga',0,0,No,No
'Persona natural',44.48,0,21.3,1,'Nunca paga',0.2,1,No,No
'Persona natural',44.44,0,21.29,1,'Nunca paga',0.2,1,No,No
'Persona natural',44.43,0,21.29,1,'Nunca paga',0.2,1,No,No
'Persona natural',44.4,0,21.28,1,'Nunca paga',0.2,1,No,No
'Persona natural',44.38,0,21.28,1,'Nunca paga',0.2,1,No,No
'Persona natural',44.36,0,0,0,'Nunca paga',0.2,0,No,No
'Persona natural',44.35,0,21.27,1,'Nunca paga',0.2,1,No,No
'Persona natural',44.34,21.09,0,0,'Con retraso',0,1,Si,No
'Persona natural',44.32,0,21.26,1,'Nunca paga',0.2,1,No,No
'Persona natural',44.3,0,21.26,1,'Nunca paga',0,1,No,No
'Persona natural',44.29,0,21.26,1,'Nunca paga',0.2,1,No,No
'Persona natural',44.28,0,21.25,1,'Nunca paga',0.2,1,No,No
'Persona natural',44.26,21.07,0,0,'Con retraso',0,1,Si,No
'Persona natural',44.25,0,21.25,1,'Nunca paga',0.2,1,No,No
'Persona natural',44.23,0,21.24,1,'Nunca paga',0.2,1,No,No
'Persona natural',44.23,0,0,0,'Nunca paga',0.2,0,No,No
'Persona natural',44.21,0,21.24,1,'Nunca paga',0.2,1,No,No
'Persona natural',44.2,0,21.23,1,'Nunca paga',0.2,1,No,No
'Persona natural',44.19,0,21.23,1,'Nunca paga',0,1,No,No
'Persona natural',44.19,0,21.23,1,'Nunca paga',0.2,1,No,No
'Persona natural',44.18,0,21.23,1,'Nunca paga',0.2,1,No,No
'Persona natural',44.16,21.04,0,0,'Con retraso',0,1,Si,No
'Persona natural',44.12,21.03,0,0,'Con retraso',0,1,Si,No
'Persona natural',44.09,0,21.21,1,'Nunca paga',0.2,1,No,No
'Persona juridica',44.08,0,21.2,1,'Nunca paga',0,0,No,No
'Persona natural',44.05,0,21.2,1,'Nunca paga',0.2,1,No,No
'Persona natural',44.03,0,21.19,1,'Nunca paga',0,1,No,No
'Persona natural',44.02,0,21.19,1,'Nunca paga',0.2,1,No,No
'Persona natural',44.01,0,21.19,1,'Nunca paga',0.2,1,No,No
'Persona natural',44,0,21.17,1,'Nunca paga',0.2,1,No,No
'Persona natural',43.99,0,21.17,1,'Nunca paga',0.2,1,No,No
'Persona natural',43.97,0,21.17,1,'Nunca paga',0.2,1,No,No
'Persona natural',43.96,0,21.16,1,'Nunca paga',0.2,1,No,No
'Persona natural',43.96,0,21.16,1,'Nunca paga',0,1,No,No
'Persona natural',43.94,0,21.16,1,'Nunca paga',0.2,1,No,No
'Persona natural',43.92,0,21.15,1,'Nunca paga',0.2,1,No,No
'Persona natural',43.92,0,21.15,1,'Nunca paga',0,1,No,No
'Persona natural',43.91,0,0,0,'Nunca paga',0.2,0,No,No
'Persona natural',43.89,0,21.15,1,'Nunca paga',0,1,No,No
'Persona natural',43.89,0,21.15,1,'Nunca paga',0.2,1,No,No
'Persona natural',43.86,0,21.14,1,'Nunca paga',0.2,1,No,No
'Persona natural',43.86,0,21.14,1,'Nunca paga',0,1,No,No
'Persona natural',43.85,0,21.14,1,'Nunca paga',0,1,No,No
'Persona natural',43.83,0,21.13,1,'Nunca paga',0.2,1,No,No
'Persona natural',43.82,0,21.13,1,'Nunca paga',0.2,1,No,No
'Persona natural',43.81,20.96,0,0,'Con retraso',0,1,Si,No
'Persona natural',43.81,0,21.13,1,'Nunca paga',0.2,1,No,No
'Persona natural',43.81,0,21.13,1,'Nunca paga',0,1,No,No
'Persona natural',43.79,0,21.12,1,'Nunca paga',0,1,No,No
'Persona natural',43.78,0,21.12,1,'Nunca paga',0,1,No,No
'Persona natural',43.78,0,21.12,1,'Nunca paga',0.2,1,No,No
'Persona natural',43.76,0,21.11,1,'Nunca paga',0,1,No,No
'Persona natural',43.74,0,21.11,1,'Nunca paga',0,1,No,No
'Persona natural',43.74,0,21.11,1,'Nunca paga',0.2,1,No,No
'Persona natural',43.72,0,21.1,1,'Nunca paga',0.2,1,No,No
'Persona natural',43.71,0,21.1,1,'Nunca paga',0.2,1,No,No
'Persona natural',43.69,0,0,0,'Nunca paga',0,0,No,No
'Persona natural',43.66,0,21.09,1,'Nunca paga',0.2,1,No,No
'Persona natural',43.62,0,21.08,1,'Nunca paga',0.2,1,No,No
'Persona natural',43.61,20.91,0,0,'Con retraso',0,1,Si,No
'Persona natural',43.61,0,21.08,1,'Nunca paga',0.2,1,No,No
'Persona natural',43.6,0,21.07,1,'Nunca paga',0,1,No,No
'Persona natural',43.59,0,21.07,1,'Nunca paga',0.2,1,No,No
'Persona natural',43.59,0,21.07,1,'Nunca paga',0,0,No,No
'Persona natural',43.56,0,21.06,1,'Nunca paga',0.2,1,No,No
'Persona natural',43.55,0,21.06,1,'Nunca paga',0,1,No,No
'Persona natural',43.51,0,21.05,1,'Nunca paga',0.2,1,No,No
'Persona natural',43.5,0,21.05,1,'Nunca paga',0.2,1,No,No
'Persona natural',43.5,0,0,0,'Nunca paga',0.2,0,No,No
'Persona natural',43.49,0,21.05,1,'Nunca paga',0.2,1,No,No
'Persona natural',43.47,0,21.04,1,'Nunca paga',0,1,No,No
'Persona natural',43.45,0,21.04,1,'Nunca paga',0.2,1,No,No
'Persona natural',43.45,27.39,0,0,'Con retraso',0,1,Si,No
'Persona natural',43.45,20.87,0,0,'Con retraso',0,1,Si,No
'Persona natural',43.44,0,21.03,1,'Nunca paga',0.2,1,No,No
'Persona natural',43.4,0,21.02,1,'Nunca paga',0,1,No,No
'Persona natural',43.4,0,21.02,1,'Nunca paga',0.2,1,No,No
'Persona natural',43.39,0,21.02,1,'Nunca paga',0,1,No,No
'Persona natural',43.38,0,21.02,1,'Nunca paga',0.2,1,No,No
'Persona natural',43.37,0,21.02,1,'Nunca paga',0,0,No,No
'Persona natural',43.32,0,21,1,'Nunca paga',0.2,1,No,No
'Persona natural',43.3,0,21,1,'Nunca paga',0.2,1,No,No
'Persona natural',43.28,0,20.99,1,'Nunca paga',0,1,No,No
'Persona natural',43.27,10.82,0,0,'Con retraso',0,0,Si,No
'Persona natural',43.26,0,20.99,1,'Nunca paga',0.2,1,No,No
'Persona natural',43.25,0,20.99,1,'Nunca paga',0.2,1,No,No
'Persona natural',43.23,0,20.98,1,'Nunca paga',0,1,No,No
'Persona natural',43.23,0,20.98,1,'Nunca paga',0.2,1,No,No
'Persona natural',43.21,20.81,0,0,'Con retraso',0,1,Si,No
'Persona natural',43.2,0,20.97,1,'Nunca paga',0.2,1,No,No
'Persona natural',43.18,0,20.97,1,'Nunca paga',0.2,1,No,No
'Persona natural',43.17,0,20.97,1,'Nunca paga',0.2,1,No,No
'Persona natural',43.17,0,20.97,1,'Nunca paga',0,1,No,No
'Persona natural',43.16,0,20.96,1,'Nunca paga',0,1,No,No
'Persona natural',43.15,0,20.96,1,'Nunca paga',0,1,No,No
'Persona natural',43.15,0,20.96,1,'Nunca paga',0.2,1,No,No
'Persona natural',43.13,0,20.96,1,'Nunca paga',0.2,1,No,No
'Persona natural',43.12,0,20.95,1,'Nunca paga',0.2,1,No,No
'Persona natural',43.11,0,20.95,1,'Nunca paga',0,0,No,No
'Persona natural',43.1,0,20.95,1,'Nunca paga',0.2,1,No,No
'Persona natural',43.09,0,20.95,1,'Nunca paga',0,1,No,No
'Persona natural',43.06,0,20.94,1,'Nunca paga',0.2,1,No,No
'Persona natural',43.06,0,20.94,1,'Nunca paga',0,1,No,No
'Persona natural',43.05,0,20.94,1,'Nunca paga',0.2,1,No,No
'Persona natural',43.03,20.76,0,0,'Con retraso',0,1,Si,No
'Persona natural',43.02,20.76,0,0,'Con retraso',0,1,Si,No
'Persona natural',42.99,0,20.92,1,'Nunca paga',0.2,1,No,No
'Persona natural',42.98,0,20.92,1,'Nunca paga',0,1,No,No
'Persona natural',42.96,0,20.91,1,'Nunca paga',0,1,No,No
'Persona natural',42.96,0,20.91,1,'Nunca paga',0.2,1,No,No
'Persona natural',42.95,0,20.91,1,'Nunca paga',0.2,1,No,No
'Persona natural',42.94,0,20.91,1,'Nunca paga',0.2,1,No,No
'Persona natural',42.94,0,20.91,1,'Nunca paga',0,1,No,No
'Persona natural',42.92,0,20.9,1,'Nunca paga',0.2,1,No,No
'Persona natural',42.9,0,20.9,1,'Nunca paga',0,1,No,No
'Persona natural',42.89,0,20.9,1,'Nunca paga',0,1,No,No
'Persona natural',42.87,0,20.89,1,'Nunca paga',0.2,1,No,No
'Persona natural',42.8,0,20.87,1,'Nunca paga',0,1,No,No
'Persona natural',42.8,0,20.87,1,'Nunca paga',0.2,1,No,No
'Persona natural',42.79,0,20.87,1,'Nunca paga',0.2,1,No,No
'Persona natural',42.78,0,0,0,'Nunca paga',0.2,0,No,No
'Persona natural',42.77,0,20.87,1,'Nunca paga',0.2,1,No,No
'Persona natural',42.77,0,20.87,1,'Nunca paga',0,1,No,No
'Persona natural',42.76,20.69,0,0,'Con retraso',0,1,Si,No
'Persona natural',42.75,0,20.86,1,'Nunca paga',0.2,1,No,No
'Persona natural',42.74,0,0,0,'Nunca paga',0.2,0,No,No
'Persona natural',42.74,0,20.86,1,'Nunca paga',0.2,1,No,No
'Persona natural',42.73,0,20.86,1,'Nunca paga',0.2,1,No,No
'Persona natural',42.7,0,20.85,1,'Nunca paga',0.2,1,No,No
'Persona natural',42.66,20.67,0,0,'Con retraso',0,1,Si,No
'Persona natural',42.65,0,20.84,1,'Nunca paga',0,0,No,No
'Persona natural',42.65,0,20.84,1,'Nunca paga',0.2,1,No,No
'Persona natural',42.64,0,20.83,1,'Nunca paga',0.2,1,No,No
'Persona natural',42.57,0,20.82,1,'Nunca paga',0.2,1,No,No
'Persona natural',42.57,0,20.82,1,'Nunca paga',0,1,No,No
'Persona natural',42.56,0,20.81,1,'Nunca paga',0,1,No,No
'Persona natural',42.56,0,20.81,1,'Nunca paga',0.2,1,No,No
'Persona natural',42.53,0,20.81,1,'Nunca paga',0,1,No,No
'Persona natural',42.51,0,0,0,'Nunca paga',0.2,0,No,No
'Persona natural',42.46,0,20.79,1,'Nunca paga',0.2,1,No,No
'Persona natural',42.43,0,20.78,1,'Nunca paga',0,0,No,No
'Persona natural',42.43,0,20.78,1,'Nunca paga',0.2,1,No,No
'Persona natural',42.42,0,20.78,1,'Nunca paga',0.2,1,No,No
'Persona natural',42.41,0,20.78,1,'Nunca paga',0,1,No,No
'Persona natural',42.4,0,20.77,1,'Nunca paga',0.2,1,No,No
'Persona natural',42.35,0,20.76,1,'Nunca paga',0.2,1,No,No
'Persona natural',42.32,0,20.75,1,'Nunca paga',0.2,1,No,No
'Persona natural',42.3,0,20.75,1,'Nunca paga',0,1,No,No
'Persona natural',42.27,0,20.74,1,'Nunca paga',0.2,1,No,No
'Persona natural',42.26,0,20.74,1,'Nunca paga',0.2,1,No,No
'Persona natural',42.22,0,20.73,1,'Nunca paga',0.2,1,No,No
'Persona natural',42.18,0,0,0,'Nunca paga',0.2,0,No,No
'Persona natural',42.18,0,20.72,1,'Nunca paga',0.2,1,No,No
'Persona natural',42.18,0,20.72,1,'Nunca paga',0,1,No,No
'Persona natural',42.16,10.54,0,0,'Con retraso',0,0,Si,No
'Persona natural',42.15,0,0,0,'Nunca paga',0,0,No,No
'Persona natural',42.15,20.67,0,0,'Con retraso',0,1,Si,No
'Persona natural',42.13,0,20.71,1,'Nunca paga',0.2,1,No,No
'Persona natural',42.12,0,20.7,1,'Nunca paga',0.2,1,No,No
'Persona natural',42.12,20.53,0,0,'Con retraso',0,1,Si,No
'Persona natural',42.08,0,20.69,1,'Nunca paga',0.2,1,No,No
'Persona natural',42.07,0,20.69,1,'Nunca paga',0.2,1,No,No
'Persona natural',42.06,0,20.69,1,'Nunca paga',0,1,No,No
'Persona natural',42.04,0,20.68,1,'Nunca paga',0,1,No,No
'Persona natural',42.04,0,20.68,1,'Nunca paga',0.2,1,No,No
'Persona natural',42.02,0,20.68,1,'Nunca paga',0.2,1,No,No
'Persona natural',42,0,20.67,1,'Nunca paga',0,1,No,No
'Persona natural',41.98,0,20.67,1,'Nunca paga',0.2,1,No,No
'Persona natural',41.97,0,20.67,1,'Nunca paga',0,1,No,No
'Persona natural',41.96,0,20.66,1,'Nunca paga',0,1,No,No
'Persona natural',41.95,0,20.66,1,'Nunca paga',0.2,1,No,No
'Persona natural',41.95,0,20.66,1,'Nunca paga',0,1,No,No
'Persona natural',41.94,0,20.66,1,'Nunca paga',0.2,1,No,No
'Persona natural',41.92,20.48,0,0,'Con retraso',0,1,Si,No
'Persona natural',41.92,0,20.65,1,'Nunca paga',0.2,1,No,No
'Persona natural',41.9,20.48,0,0,'Con retraso',0,1,Si,No
'Persona natural',41.9,0,20.65,1,'Nunca paga',0.2,1,No,No
'Persona natural',41.89,0,20.65,1,'Nunca paga',0.2,1,No,No
'Persona natural',41.88,0,20.64,1,'Nunca paga',0.2,1,No,No
'Persona natural',41.88,0,20.64,1,'Nunca paga',0,1,No,No
'Persona natural',41.87,0,20.64,1,'Nunca paga',0.2,1,No,No
'Persona natural',41.87,0,20.64,1,'Nunca paga',0,1,No,No
'Persona natural',41.86,20.47,0,0,'Con retraso',0,1,Si,No
'Persona natural',41.83,0,20.63,1,'Nunca paga',0.2,1,No,No
'Persona natural',41.82,0,20.63,1,'Nunca paga',0,0,No,No
'Persona natural',41.82,0,20.63,1,'Nunca paga',0,1,No,No
'Persona natural',41.8,0,20.62,1,'Nunca paga',0.2,1,No,No
'Persona natural',41.79,0,20.62,1,'Nunca paga',0,1,No,No
'Persona natural',41.79,0,20.62,1,'Nunca paga',0.2,1,No,No
'Persona natural',41.78,21.41,0,0,'Con retraso',0,1,Si,No
'Persona natural',41.78,0,20.62,1,'Nunca paga',0,1,No,No
'Persona natural',41.76,0,20.61,1,'Nunca paga',0,1,No,No
'Persona natural',41.75,0,20.61,1,'Nunca paga',0.2,1,No,No
'Persona natural',41.75,0,20.61,1,'Nunca paga',0,1,No,No
'Persona natural',41.73,0,20.61,1,'Nunca paga',0,1,No,No
'Persona natural',41.69,0,20.6,1,'Nunca paga',0,1,No,No
'Persona natural',41.65,0,20.59,1,'Nunca paga',0.2,1,No,No
'Persona natural',41.61,0,20.58,1,'Nunca paga',0.2,1,No,No
'Persona natural',41.6,0,0,0,'Nunca paga',0.2,0,No,No
'Persona natural',41.6,0,20.57,1,'Nunca paga',0.2,1,No,No
'Persona natural',41.56,0,20.56,1,'Nunca paga',0.2,1,No,No
'Persona natural',41.55,0,20.56,1,'Nunca paga',0.2,1,No,No
'Persona natural',41.5,18.25,2.16,1,'Con retraso',0,1,Si,Si
'Persona natural',41.44,20.36,0,0,'Con retraso',0,1,Si,No
'Persona natural',41.42,0,20.52,1,'Nunca paga',0,1,No,No
'Persona natural',41.41,0,20.52,1,'Nunca paga',0,1,No,No
'Persona natural',41.4,0,20.51,1,'Nunca paga',0,1,No,No
'Persona natural',41.4,0,20.51,1,'Nunca paga',0.2,1,No,No
'Persona natural',41.38,0,20.51,1,'Nunca paga',0,1,No,No
'Persona natural',41.37,0,20.51,1,'Nunca paga',0.2,1,No,No
'Persona natural',41.31,0,20.49,1,'Nunca paga',0.2,1,No,No
'Persona natural',41.31,0,20.49,1,'Nunca paga',0,1,No,No
'Persona natural',41.31,0,20.49,1,'Nunca paga',0,0,No,No
'Persona natural',41.31,0,0,0,'Nunca paga',0,0,No,No
'Persona natural',41.3,0,20.49,1,'Nunca paga',0,1,No,No
'Persona natural',41.3,0,20.49,1,'Nunca paga',0.2,1,No,No
'Persona natural',41.28,0,20.48,1,'Nunca paga',0.2,1,No,No
'Persona natural',41.27,0,20.48,1,'Nunca paga',0.2,1,No,No
'Persona natural',41.26,0,20.48,1,'Nunca paga',0.2,1,No,No
'Persona natural',41.21,0,20.47,1,'Nunca paga',0.2,1,No,No
'Persona natural',41.19,0,20.46,1,'Nunca paga',0.2,1,No,No
'Persona natural',41.16,0,20.45,1,'Nunca paga',0.2,1,No,No
'Persona natural',41.14,0,20.45,1,'Nunca paga',0,1,No,No
'Persona natural',41.13,0,20.45,1,'Nunca paga',0.2,1,No,No
'Persona natural',41.12,0,20.44,1,'Nunca paga',0,1,No,No
'Persona natural',41.12,0,20.44,1,'Nunca paga',0.2,1,No,No
'Persona natural',41.11,0,20.44,1,'Nunca paga',0.2,1,No,No
'Persona natural',41.1,0,20.44,1,'Nunca paga',0.2,1,No,No
'Persona natural',41.08,0,20.43,1,'Nunca paga',0.2,1,No,No
'Persona natural',41.06,0,20.43,1,'Nunca paga',0.2,1,No,No
'Persona natural',41.05,0,20.43,1,'Nunca paga',0.2,1,No,No
'Persona natural',41.05,20.27,0,0,'Con retraso',0,1,Si,No
'Persona natural',41.04,0,20.42,1,'Nunca paga',0.2,1,No,No
'Persona natural',41.04,24.75,0,0,'Con retraso',0,1,Si,No
'Persona natural',41.03,0,20.42,1,'Nunca paga',0,1,No,No
'Persona natural',41.03,0,20.42,1,'Nunca paga',0.2,1,No,No
'Persona natural',41.02,0,20.42,1,'Nunca paga',0.2,1,No,No
'Persona natural',41.01,0,0,0,'Nunca paga',0.2,0,No,No
'Persona natural',40.93,0,20.4,1,'Nunca paga',0.2,1,No,No
'Persona natural',40.89,0,20.39,1,'Nunca paga',0.2,1,No,No
'Persona natural',40.88,0,20.38,1,'Nunca paga',0.2,1,No,No
'Persona natural',40.88,0,20.38,1,'Nunca paga',0,1,No,No
'Persona natural',40.87,0,20.38,1,'Nunca paga',0.2,1,No,No
'Persona natural',40.83,0,20.37,1,'Nunca paga',0.2,1,No,No
'Persona natural',40.82,0,20.37,1,'Nunca paga',0.2,1,No,No
'Persona natural',40.8,0,20.36,1,'Nunca paga',0,1,No,No
'Persona natural',40.8,0,20.36,1,'Nunca paga',0.2,1,No,No
'Persona natural',40.79,0,0,0,'Nunca paga',0.2,0,No,No
'Persona natural',40.79,0,20.36,1,'Nunca paga',0,1,No,No
'Persona natural',40.79,20.2,0,0,'Con retraso',0,1,Si,No
'Persona natural',40.78,0,20.36,1,'Nunca paga',0.2,1,No,No
'Persona natural',40.76,0,20.35,1,'Nunca paga',0,1,No,No
'Persona natural',40.76,0,20.35,1,'Nunca paga',0.2,1,No,No
'Persona natural',40.75,0,20.35,1,'Nunca paga',0,1,No,No
'Persona natural',40.71,0,20.34,1,'Nunca paga',0,1,No,No
'Persona natural',40.7,10.18,0,0,'Con retraso',0,0,Si,No
'Persona natural',40.69,0,20.34,1,'Nunca paga',0.2,1,No,No
'Persona natural',40.67,0,20.33,1,'Nunca paga',0.2,1,No,No
'Persona natural',40.65,0,20.33,1,'Nunca paga',0,1,No,No
'Persona natural',40.65,0,0,0,'Nunca paga',0.2,0,No,No
'Persona natural',40.64,0,20.32,1,'Nunca paga',0.2,1,No,No
'Persona natural',40.62,0,20.32,1,'Nunca paga',0.2,1,No,No
'Persona natural',40.59,0,20.31,1,'Nunca paga',0.2,1,No,No
'Persona natural',40.58,0,20.31,1,'Nunca paga',0,1,No,No
'Persona natural',40.58,0,20.31,1,'Nunca paga',0.2,1,No,No
'Persona natural',40.54,0,20.3,1,'Nunca paga',0,1,No,No
'Persona natural',40.53,0,20.3,1,'Nunca paga',0.2,1,No,No
'Persona natural',40.52,0,20.29,1,'Nunca paga',0.2,1,No,No
'Persona natural',40.51,0,20.29,1,'Nunca paga',0,1,No,No
'Persona natural',40.51,0,0,0,'Nunca paga',0,0,No,No
'Persona natural',40.48,0,20.28,1,'Nunca paga',0.2,1,No,No
'Persona natural',40.48,0,20.28,1,'Nunca paga',0,1,No,No
'Persona natural',40.45,0,20.28,1,'Nunca paga',0.2,1,No,No
'Persona natural',40.42,20.11,0,0,'Con retraso',0,1,Si,No
'Persona natural',40.4,0,20.26,1,'Nunca paga',0.2,1,No,No
'Persona natural',40.39,0,20.26,1,'Nunca paga',0,1,No,No
'Persona natural',40.38,0,20.26,1,'Nunca paga',0.2,1,No,No
'Persona natural',40.36,0,20.25,1,'Nunca paga',0.2,1,No,No
'Persona natural',40.33,0,20.25,1,'Nunca paga',0.2,1,No,No
'Persona natural',40.33,0,20.25,1,'Nunca paga',0,1,No,No
'Persona natural',40.32,0,20.24,1,'Nunca paga',0,1,No,No
'Persona natural',40.31,0,20.24,1,'Nunca paga',0.2,1,No,No
'Persona natural',40.28,0,20.23,1,'Nunca paga',0.2,1,No,No
'Persona natural',40.27,0,20.23,1,'Nunca paga',0.2,1,No,No
'Persona natural',40.27,0,0,0,'Nunca paga',0.2,0,No,No
'Persona natural',40.25,0,20.23,1,'Nunca paga',0,1,No,No
'Persona natural',40.23,0,20.22,1,'Nunca paga',0,1,No,No
'Persona natural',40.21,0,20.22,1,'Nunca paga',0,1,No,No
'Persona natural',40.18,0,20.21,1,'Nunca paga',0.2,1,No,No
'Persona natural',40.15,0,20.2,1,'Nunca paga',0.2,1,No,No
'Persona natural',40.12,0,20.19,1,'Nunca paga',0,1,No,No
'Persona natural',40.11,0,20.19,1,'Nunca paga',0,1,No,No
'Persona natural',40.1,0,20.19,1,'Nunca paga',0.2,1,No,No
'Persona natural',40.09,0,20.19,1,'Nunca paga',0.2,1,No,No
'Persona natural',40.08,0,20.18,1,'Nunca paga',0.2,1,No,No
'Persona natural',40.06,0,20.18,1,'Nunca paga',0,1,No,No
'Persona natural',40.05,0,20.18,1,'Nunca paga',0,1,No,No
'Persona natural',40.04,0,20.17,1,'Nunca paga',0.2,1,No,No
'Persona natural',40.03,0,20.17,1,'Nunca paga',0.2,1,No,No
'Persona natural',40.02,20.01,0,0,'Con retraso',0,1,Si,No
'Persona natural',40,0,20.16,1,'Nunca paga',0.2,1,No,No
'Persona natural',40,0,20.16,1,'Nunca paga',0,1,No,No
'Persona natural',39.99,0,20.16,1,'Nunca paga',0.2,1,No,No
'Persona natural',39.9,0,20.14,1,'Nunca paga',0,1,No,No
'Persona natural',39.89,0,20.14,1,'Nunca paga',0,1,No,No
'Persona natural',39.89,0,20.14,1,'Nunca paga',0.2,1,No,No
'Persona natural',39.86,0,20.13,1,'Nunca paga',0,0,No,No
'Persona natural',39.85,0,20.13,1,'Nunca paga',0,1,No,No
'Persona natural',39.82,0,20.12,1,'Nunca paga',0,1,No,No
'Persona natural',39.82,0,20.12,1,'Nunca paga',0.2,1,No,No
'Persona natural',39.81,0,20.12,1,'Nunca paga',0.2,1,No,No
'Persona natural',39.77,0,20.11,1,'Nunca paga',0.2,1,No,No
'Persona natural',39.76,0,20.1,1,'Nunca paga',0.2,1,No,No
'Persona natural',39.75,19.94,0,0,'Con retraso',0,1,Si,No
'Persona natural',39.74,0,20.1,1,'Nunca paga',0.2,1,No,No
'Persona natural',39.73,0,20.1,1,'Nunca paga',0.2,1,No,No
'Persona natural',39.72,0,20.09,1,'Nunca paga',0.2,1,No,No
'Persona natural',39.66,0,20.08,1,'Nunca paga',0.2,1,No,No
'Persona natural',39.64,0,20.07,1,'Nunca paga',0.2,1,No,No
'Persona natural',39.61,0,20.07,1,'Nunca paga',0.2,1,No,No
'Persona natural',39.59,0,20.06,1,'Nunca paga',0.2,1,No,No
'Persona natural',39.56,0,0,0,'Nunca paga',0,0,No,No
'Persona natural',39.56,19.89,0,0,'Con retraso',0,1,Si,No
'Persona natural',39.54,0,20.05,1,'Nunca paga',0,1,No,No
'Persona natural',39.52,0,20.04,1,'Nunca paga',0.2,1,No,No
'Persona natural',39.51,0,20.04,1,'Nunca paga',0.2,1,No,No
'Persona natural',39.49,0,20.04,1,'Nunca paga',0.2,1,No,No
'Persona natural',39.49,0,20.04,1,'Nunca paga',0,1,No,No
'Persona natural',39.48,0,20.03,1,'Nunca paga',0.2,1,No,No
'Persona natural',39.46,0,20.03,1,'Nunca paga',0,1,No,No
'Persona natural',39.46,0,20.03,1,'Nunca paga',0.2,1,No,No
'Persona natural',39.44,0,20.02,1,'Nunca paga',0,1,No,No
'Persona natural',39.43,0,20.02,1,'Nunca paga',0.2,1,No,No
'Persona natural',39.41,0,20.02,1,'Nunca paga',0.2,1,No,No
'Persona natural',39.39,0,20.01,1,'Nunca paga',0,1,No,No
'Persona natural',39.38,19.85,0,0,'Con retraso',0,1,Si,No
'Persona natural',39.38,0,20.01,1,'Nunca paga',0.2,1,No,No
'Persona natural',39.38,0,20.01,1,'Nunca paga',0,1,No,No
'Persona natural',39.36,0,20,1,'Nunca paga',0.2,1,No,No
'Persona natural',39.34,19.84,0,0,'Con retraso',0,1,Si,No
'Persona natural',39.31,19.83,0,0,'Con retraso',0,1,Si,No
'Persona natural',39.31,0,19.99,1,'Nunca paga',0.2,1,No,No
'Persona natural',39.29,0,19.99,1,'Nunca paga',0.2,1,No,No
'Persona natural',39.29,0,19.99,1,'Nunca paga',0,1,No,No
'Persona natural',39.29,0,19.99,1,'Nunca paga',0,0,No,No
'Persona juridica',39.29,0,9.99,1,'Nunca paga',0,0,No,No
'Persona natural',39.27,0,19.98,1,'Nunca paga',0,1,No,No
'Persona natural',39.27,0,19.98,1,'Nunca paga',0.2,1,No,No
'Persona natural',39.24,0,19.97,1,'Nunca paga',0,1,No,No
'Persona natural',39.24,0,19.97,1,'Nunca paga',0.2,1,No,No
'Persona natural',39.22,0,19.97,1,'Nunca paga',0.2,1,No,No
'Persona natural',39.21,0,19.97,1,'Nunca paga',0.2,1,No,No
'Persona natural',39.16,0,19.95,1,'Nunca paga',0.2,1,No,No
'Persona natural',39.16,0,19.95,1,'Nunca paga',0,1,No,No
'Persona natural',39.16,19.79,0,0,'Con retraso',0,1,Si,No
'Persona natural',39.15,19.79,0,0,'Con retraso',0,1,Si,No
'Persona natural',39.13,0,0,0,'Nunca paga',0,0,No,No
'Persona natural',39.12,0,19.94,1,'Nunca paga',0.2,1,No,No
'Persona natural',39.11,0,19.94,1,'Nunca paga',0.2,1,No,No
'Persona natural',39.08,0,19.93,1,'Nunca paga',0.2,1,No,No
'Persona natural',39.07,0,19.93,1,'Nunca paga',0,1,No,No
'Persona natural',39.07,0,19.93,1,'Nunca paga',0.2,1,No,No
'Persona natural',39.06,0,19.93,1,'Nunca paga',0,0,No,No
'Persona natural',39.06,0,19.93,1,'Nunca paga',0,1,No,No
'Persona natural',39.05,0,19.93,1,'Nunca paga',0,1,No,No
'Persona natural',39.01,0,19.92,1,'Nunca paga',0.2,1,No,No
'Persona natural',39,0,19.91,1,'Nunca paga',0.2,1,No,No
'Persona natural',39,0,19.91,1,'Nunca paga',0,1,No,No
'Persona natural',38.99,19.75,0,0,'Con retraso',0,1,Si,No
'Persona natural',38.99,0,19.91,1,'Nunca paga',0,1,No,No
'Persona natural',38.97,0,19.91,1,'Nunca paga',0.2,1,No,No
'Persona natural',38.97,0,19.91,1,'Nunca paga',0,1,No,No
'Persona natural',38.96,19.74,0,0,'Con retraso',0,1,Si,No
'Persona natural',38.95,0,19.89,1,'Nunca paga',0,1,No,No
'Persona natural',38.95,0,19.89,1,'Nunca paga',0.2,1,No,No
'Persona natural',38.92,0,19.88,1,'Nunca paga',0.2,1,No,No
'Persona natural',38.91,0,19.88,1,'Nunca paga',0.2,1,No,No
'Persona natural',38.89,19.73,0,0,'Con retraso',0,1,Si,No
'Persona natural',38.89,0,19.88,1,'Nunca paga',0.2,1,No,No
'Persona natural',38.87,0,19.87,1,'Nunca paga',0.2,1,No,No
'Persona natural',38.85,0,19.87,1,'Nunca paga',0.2,1,No,No
'Persona natural',38.82,0,19.86,1,'Nunca paga',0,1,No,No
'Persona natural',38.81,19.71,0,0,'Con retraso',0,1,Si,No
'Persona natural',38.8,0,19.85,1,'Nunca paga',0.2,1,No,No
'Persona natural',38.79,0,19.85,1,'Nunca paga',0.2,1,No,No
'Persona natural',38.77,0,0,0,'Nunca paga',0.2,0,No,No
'Persona natural',38.73,0,0,0,'Nunca paga',0,0,No,No
'Persona natural',38.71,0,0,0,'Nunca paga',0,0,No,No
'Persona natural',38.71,0,19.83,1,'Nunca paga',0.2,1,No,No
'Persona natural',38.68,0,19.82,1,'Nunca paga',0.2,1,No,No
'Persona natural',38.67,0,19.82,1,'Nunca paga',0.2,1,No,No
'Persona natural',38.64,0,19.81,1,'Nunca paga',0.2,1,No,No
'Persona natural',38.63,0,19.81,1,'Nunca paga',0.2,1,No,No
'Persona natural',38.59,0,19.8,1,'Nunca paga',0.2,1,No,No
'Persona natural',38.58,0,19.8,1,'Nunca paga',0.2,1,No,No
'Persona natural',38.57,0,19.8,1,'Nunca paga',0.2,1,No,No
'Persona natural',38.55,0,19.79,1,'Nunca paga',0.2,1,No,No
'Persona natural',38.54,0,19.79,1,'Nunca paga',0,1,No,No
'Persona natural',38.53,0,19.79,1,'Nunca paga',0.2,1,No,No
'Persona natural',38.53,19.64,0,0,'Con retraso',0,1,Si,No
'Persona natural',38.52,0,19.78,1,'Nunca paga',0,1,No,No
'Persona natural',38.51,9.63,0,0,'Con retraso',0,0,Si,No
'Persona natural',38.5,0,19.78,1,'Nunca paga',0,1,No,No
'Persona natural',38.48,0,19.77,1,'Nunca paga',0.2,1,No,No
'Persona natural',38.41,0,19.76,1,'Nunca paga',0,1,No,No
'Persona natural',38.39,0,19.75,1,'Nunca paga',0.2,1,No,No
'Persona natural',38.38,0,19.75,1,'Nunca paga',0.2,1,No,No
'Persona natural',38.38,0,19.75,1,'Nunca paga',0,1,No,No
'Persona natural',38.34,0,19.74,1,'Nunca paga',0.2,1,No,No
'Persona natural',38.33,0,19.74,1,'Nunca paga',0.2,1,No,No
'Persona natural',38.33,0,19.74,1,'Nunca paga',0,0,No,No
'Persona natural',38.32,0,19.73,1,'Nunca paga',0,1,No,No
'Persona natural',38.32,0,19.73,1,'Nunca paga',0.2,1,No,No
'Persona natural',38.3,0,19.73,1,'Nunca paga',0.2,1,No,No
'Persona natural',38.3,0,19.73,1,'Nunca paga',0,1,No,No
'Persona natural',38.29,0,19.73,1,'Nunca paga',0.2,1,No,No
'Persona natural',38.29,19.58,0,0,'Con retraso',0,1,Si,No
'Persona natural',38.24,0,19.71,1,'Nunca paga',0.2,1,No,No
'Persona natural',38.21,0,19.71,1,'Nunca paga',0.2,1,No,No
'Persona natural',38.18,0,19.7,1,'Nunca paga',0.2,1,No,No
'Persona natural',38.18,19.55,0,0,'Con retraso',0,1,Si,No
'Persona natural',38.17,0,19.7,1,'Nunca paga',0.2,1,No,No
'Persona natural',38.17,0,19.7,1,'Nunca paga',0,1,No,No
'Persona natural',38.15,0,19.69,1,'Nunca paga',0.2,1,No,No
'Persona natural',38.14,0,19.69,1,'Nunca paga',0.2,1,No,No
'Persona natural',38.14,19.54,0,0,'Con retraso',0,1,Si,No
'Persona natural',38.12,0,19.68,1,'Nunca paga',0,1,No,No
'Persona natural',38.08,0,19.67,1,'Nunca paga',0.2,1,No,No
'Persona natural',38.07,0,19.67,1,'Nunca paga',0,1,No,No
'Persona natural',38.05,19.63,0,0,'Con retraso',0,1,Si,No
'Persona natural',38.05,19.52,0,0,'Con retraso',0,1,Si,No
'Persona natural',38.05,0,19.67,1,'Nunca paga',0.2,1,No,No
'Persona natural',38.05,0,19.67,1,'Nunca paga',0,1,No,No
'Persona natural',38.03,0,19.66,1,'Nunca paga',0,1,No,No
'Persona natural',38.02,0,19.66,1,'Nunca paga',0,1,No,No
'Persona natural',38,0,19.65,1,'Nunca paga',0.2,1,No,No
'Persona natural',37.99,0,19.65,1,'Nunca paga',0,1,No,No
'Persona natural',37.99,0,19.65,1,'Nunca paga',0.2,1,No,No
'Persona natural',37.97,0,19.65,1,'Nunca paga',0,1,No,No
'Persona natural',37.97,0,0,0,'Nunca paga',0.2,0,No,No
'Persona natural',37.96,0,19.64,1,'Nunca paga',0,1,No,No
'Persona natural',37.95,0,19.64,1,'Nunca paga',0,1,No,No
'Persona natural',37.93,0,19.64,1,'Nunca paga',0.2,1,No,No
'Persona natural',37.93,0,9.64,1,'Nunca paga',0.2,0,No,No
'Persona natural',37.92,0,19.63,1,'Nunca paga',0.2,1,No,No
'Persona natural',37.9,0,19.63,1,'Nunca paga',0.2,1,No,No
'Persona natural',37.88,0,19.62,1,'Nunca paga',0.2,1,No,No
'Persona natural',37.84,0,19.61,1,'Nunca paga',0.2,1,No,No
'Persona natural',37.83,0,19.61,1,'Nunca paga',0.2,1,No,No
'Persona natural',37.81,0,19.61,1,'Nunca paga',0.2,1,No,No
'Persona natural',37.81,0,0,0,'Nunca paga',0.2,0,No,No
'Persona natural',37.81,0,19.61,1,'Nunca paga',0,1,No,No
'Persona natural',37.78,0,19.6,1,'Nunca paga',0.2,1,No,No
'Persona natural',37.75,0,19.59,1,'Nunca paga',0,1,No,No
'Persona natural',37.74,0,19.59,1,'Nunca paga',0.2,1,No,No
'Persona natural',37.71,0,19.58,1,'Nunca paga',0,0,No,No
'Persona natural',37.7,0,19.58,1,'Nunca paga',0.2,1,No,No
'Persona natural',37.68,0,0,0,'Nunca paga',0.2,0,No,No
'Persona natural',37.67,19.42,0,0,'Con retraso',0,1,Si,No
'Persona natural',37.67,0,19.57,1,'Nunca paga',0.2,1,No,No
'Persona natural',37.66,0,19.57,1,'Nunca paga',0,1,No,No
'Persona natural',37.65,19.42,0,0,'Con retraso',0,1,Si,No
'Persona natural',37.62,19.41,0,0,'Con retraso',0,1,Si,No
'Persona natural',37.62,0,19.56,1,'Nunca paga',0.2,1,No,No
'Persona natural',37.59,0,19.55,1,'Nunca paga',0.2,1,No,No
'Persona natural',37.58,0,19.55,1,'Nunca paga',0.2,1,No,No
'Persona natural',37.55,0,19.54,1,'Nunca paga',0,1,No,No
'Persona natural',37.55,0,19.54,1,'Nunca paga',0.2,1,No,No
'Persona natural',37.54,0,19.54,1,'Nunca paga',0,1,No,No
'Persona natural',37.53,19.39,0,0,'Con retraso',0,1,Si,No
'Persona natural',37.52,0,19.53,1,'Nunca paga',0,1,No,No
'Persona natural',37.51,0,0,0,'Nunca paga',0.2,0,No,No
'Persona natural',37.49,0,19.53,1,'Nunca paga',0.2,1,No,No
'Persona natural',37.47,0,19.52,1,'Nunca paga',0.2,1,No,No
'Persona natural',37.47,9.37,0,0,'Con retraso',0,0,Si,No
'Persona natural',37.44,0,19.51,1,'Nunca paga',0.2,1,No,No
'Persona natural',37.44,0,19.51,1,'Nunca paga',0,1,No,No
'Persona natural',37.43,0,19.51,1,'Nunca paga',0.2,1,No,No
'Persona natural',37.42,19.36,0,0,'Con retraso',0,1,Si,No
'Persona natural',37.39,0,19.5,1,'Nunca paga',0,1,No,No
'Persona natural',37.39,0,19.5,1,'Nunca paga',0.2,1,No,No
'Persona natural',37.27,0,19.47,1,'Nunca paga',0.2,1,No,No
'Persona natural',37.27,0,19.47,1,'Nunca paga',0,1,No,No
'Persona natural',37.26,0,19.47,1,'Nunca paga',0.2,1,No,No
'Persona natural',37.25,0,19.47,1,'Nunca paga',0,1,No,No
'Persona natural',37.21,0,19.46,1,'Nunca paga',0.2,1,No,No
'Persona natural',37.2,0,19.45,1,'Nunca paga',0.2,1,No,No
'Persona natural',37.19,0,19.45,1,'Nunca paga',0.2,1,No,No
'Persona natural',37.19,0,19.45,1,'Nunca paga',0,1,No,No
'Persona natural',37.18,0,19.45,1,'Nunca paga',0,1,No,No
'Persona natural',37.18,19.3,0,0,'Con retraso',0,1,Si,No
'Persona natural',37.18,0,19.45,1,'Nunca paga',0,0,No,No
'Persona natural',37.16,0,19.44,1,'Nunca paga',0.2,1,No,No
'Persona natural',37.16,0,19.44,1,'Nunca paga',0,1,No,No
'Persona natural',37.15,0,19.44,1,'Nunca paga',0,1,No,No
'Persona natural',37.13,0,19.44,1,'Nunca paga',0.2,1,No,No
'Persona natural',37.12,0,19.43,1,'Nunca paga',0.2,1,No,No
'Persona natural',37.09,0,19.43,1,'Nunca paga',0.2,1,No,No
'Persona natural',37.09,0,19.43,1,'Nunca paga',0,1,No,No
'Persona natural',37.08,0,19.42,1,'Nunca paga',0.2,1,No,No
'Persona natural',37.06,0,19.42,1,'Nunca paga',0,1,No,No
'Persona natural',37.05,0,19.42,1,'Nunca paga',0,1,No,No
'Persona natural',37.05,0,19.42,1,'Nunca paga',0.2,1,No,No
'Persona natural',37.03,0,19.41,1,'Nunca paga',0.2,1,No,No
'Persona natural',37.01,0,19.41,1,'Nunca paga',0,1,No,No
'Persona natural',37,0,19.4,1,'Nunca paga',0.2,1,No,No
'Persona natural',36.97,0,19.4,1,'Nunca paga',0,1,No,No
'Persona natural',36.96,0,19.39,1,'Nunca paga',0.2,1,No,No
'Persona natural',36.89,19.23,0,0,'Con retraso',0,1,Si,No
'Persona natural',36.85,0,19.37,1,'Nunca paga',0.2,1,No,No
'Persona natural',36.83,0,19.36,1,'Nunca paga',0.2,1,No,No
'Persona natural',36.82,0,19.36,1,'Nunca paga',0.2,1,No,No
'Persona natural',36.79,0,19.35,1,'Nunca paga',0.2,1,No,No
'Persona natural',36.78,0,19.35,1,'Nunca paga',0,1,No,No
'Persona natural',36.77,0,19.35,1,'Nunca paga',0,1,No,No
'Persona natural',36.71,19.18,0,0,'Con retraso',0,1,Si,No
'Persona natural',36.67,0,19.32,1,'Nunca paga',0,1,No,No
'Persona natural',36.65,0,19.32,1,'Nunca paga',0,1,No,No
'Persona natural',36.65,19.17,0,0,'Con retraso',0,1,Si,No
'Persona natural',36.63,0,19.31,1,'Nunca paga',0.2,1,No,No
'Persona natural',36.62,0,19.31,1,'Nunca paga',0.2,1,No,No
'Persona natural',36.61,0,19.31,1,'Nunca paga',0.2,1,No,No
'Persona natural',36.6,0,19.3,1,'Nunca paga',0,1,No,No
'Persona natural',36.59,19.15,0,0,'Con retraso',0,1,Si,No
'Persona natural',36.59,0,19.3,1,'Nunca paga',0.2,1,No,No
'Persona natural',36.58,0,19.3,1,'Nunca paga',0.2,1,No,No
'Persona natural',36.57,0,19.3,1,'Nunca paga',0.2,1,No,No
'Persona natural',36.54,0,19.29,1,'Nunca paga',0,1,No,No
'Persona natural',36.53,0,19.29,1,'Nunca paga',0,1,No,No
'Persona natural',36.52,0,19.28,1,'Nunca paga',0.2,1,No,No
'Persona natural',36.51,0,19.28,1,'Nunca paga',0.2,1,No,No
'Persona natural',36.49,0,19.28,1,'Nunca paga',0.2,1,No,No
'Persona natural',36.48,0,19.27,1,'Nunca paga',0,1,No,No
'Persona natural',36.48,0,19.27,1,'Nunca paga',0.2,1,No,No
'Persona natural',36.45,0,19.27,1,'Nunca paga',0.2,1,No,No
'Persona natural',36.44,0,19.25,1,'Nunca paga',0.1,1,No,No
'Persona natural',36.44,0,19.25,1,'Nunca paga',0,1,No,No
'Persona natural',36.42,19.11,0,0,'Con retraso',0,1,Si,No
'Persona natural',36.41,19.11,0,0,'Con retraso',0,1,Si,No
'Persona natural',36.41,0,19.25,1,'Nunca paga',0.1,1,No,No
'Persona natural',36.39,0,19.24,1,'Nunca paga',0.1,1,No,No
'Persona natural',36.38,9.1,0,0,'Con retraso',0,0,Si,No
'Persona natural',36.36,0,19.23,1,'Nunca paga',0,1,No,No
'Persona natural',36.36,0,19.23,1,'Nunca paga',0,0,No,No
'Persona natural',36.34,0,19.23,1,'Nunca paga',0.1,1,No,No
'Persona natural',36.32,19.08,0,0,'Con retraso',0,1,Si,No
'Persona natural',36.31,0,19.22,1,'Nunca paga',0.1,1,No,No
'Persona natural',36.31,0,19.22,1,'Nunca paga',0,1,No,No
'Persona natural',36.3,0,19.22,1,'Nunca paga',0,1,No,No
'Persona natural',36.3,0,19.22,1,'Nunca paga',0.1,1,No,No
'Persona natural',36.29,0,19.22,1,'Nunca paga',0,1,No,No
'Persona natural',36.29,0,19.22,1,'Nunca paga',0.1,1,No,No
'Persona natural',36.27,0,19.21,1,'Nunca paga',0,1,No,No
'Persona natural',36.26,0,19.21,1,'Nunca paga',0.1,1,No,No
'Persona natural',36.25,0,19.21,1,'Nunca paga',0,1,No,No
'Persona natural',36.24,0,19.2,1,'Nunca paga',0.1,1,No,No
'Persona natural',36.22,0,19.2,1,'Nunca paga',0.1,1,No,No
'Persona natural',36.21,0,19.2,1,'Nunca paga',0,1,No,No
'Persona natural',36.19,0,19.19,1,'Nunca paga',0.1,1,No,No
'Persona natural',36.18,0,19.19,1,'Nunca paga',0.1,1,No,No
'Persona natural',36.17,0,19.19,1,'Nunca paga',0.1,1,No,No
'Persona natural',36.15,19.04,0,0,'Con retraso',0,1,Si,No
'Persona natural',36.14,19.04,0,0,'Con retraso',0,1,Si,No
'Persona natural',36.14,19.15,0,0,'Con retraso',0,1,Si,No
'Persona natural',36.1,0,19.17,1,'Nunca paga',0.1,1,No,No
'Persona natural',36.09,0,19.17,1,'Nunca paga',0,1,No,No
'Persona natural',36.09,0,19.17,1,'Nunca paga',0.1,1,No,No
'Persona natural',36.08,0,19.16,1,'Nunca paga',0.1,1,No,No
'Persona natural',36.06,0,19.16,1,'Nunca paga',0,1,No,No
'Persona natural',36.05,0,19.16,1,'Nunca paga',0.1,1,No,No
'Persona natural',36.04,0,19.15,1,'Nunca paga',0.1,1,No,No
'Persona natural',36.04,0,19.15,1,'Nunca paga',0,1,No,No
'Persona natural',36.02,0,19.15,1,'Nunca paga',0,1,No,No
'Persona natural',36.02,0,19.15,1,'Nunca paga',0.1,1,No,No
'Persona natural',36.01,0,19.15,1,'Nunca paga',0,1,No,No
'Persona natural',35.99,0,19.14,1,'Nunca paga',0.1,1,No,No
'Persona natural',35.98,0,19.14,1,'Nunca paga',0.1,1,No,No
'Persona natural',35.95,0,19.13,1,'Nunca paga',0.1,1,No,No
'Persona natural',35.93,0,19.13,1,'Nunca paga',0.1,1,No,No
'Persona natural',35.92,0,19.12,1,'Nunca paga',0.1,1,No,No
'Persona natural',35.9,0,19.12,1,'Nunca paga',0.1,1,No,No
'Persona natural',35.9,0,19.12,1,'Nunca paga',0,1,No,No
'Persona natural',35.89,0,19.12,1,'Nunca paga',0,1,No,No
'Persona natural',35.87,0,19.11,1,'Nunca paga',0.1,1,No,No
'Persona natural',35.86,0,19.11,1,'Nunca paga',0.1,1,No,No
'Persona natural',35.81,0,19.1,1,'Nunca paga',0.1,1,No,No
'Persona natural',35.81,0,0,0,'Nunca paga',0.1,0,No,No
'Persona natural',35.8,0,19.09,1,'Nunca paga',0,1,No,No
'Persona natural',35.78,0,19.09,1,'Nunca paga',0.1,1,No,No
'Persona natural',35.75,18.94,0,0,'Con retraso',0,1,Si,No
'Persona natural',35.74,18.94,0,0,'Con retraso',0,1,Si,No
'Persona natural',35.74,0,19.08,1,'Nunca paga',0.1,1,No,No
'Persona natural',35.7,0,19.07,1,'Nunca paga',0.1,1,No,No
'Persona natural',35.7,0,19.07,1,'Nunca paga',0,1,No,No
'Persona natural',35.66,0,19.06,1,'Nunca paga',0,1,No,No
'Persona natural',35.63,0,19.05,1,'Nunca paga',0.1,1,No,No
'Persona natural',35.63,0,19.05,1,'Nunca paga',0,1,No,No
'Persona natural',35.6,0,19.04,1,'Nunca paga',0,1,No,No
'Persona natural',35.58,0,0,0,'Nunca paga',0.1,0,No,No
'Persona natural',35.58,0,19.04,1,'Nunca paga',0.1,1,No,No
'Persona natural',35.55,0,19.03,1,'Nunca paga',0.1,1,No,No
'Persona natural',35.53,0,19.03,1,'Nunca paga',0.1,1,No,No
'Persona natural',35.52,0,19.02,1,'Nunca paga',0.1,1,No,No
'Persona natural',35.48,18.87,0,0,'Con retraso',0,1,Si,No
'Persona natural',35.47,0,19.01,1,'Nunca paga',0.1,1,No,No
'Persona natural',35.42,0,19,1,'Nunca paga',0.1,1,No,No
'Persona natural',35.41,0,19,1,'Nunca paga',0.1,1,No,No
'Persona natural',35.4,0,18.99,1,'Nunca paga',0.1,1,No,No
'Persona natural',35.39,0,18.99,1,'Nunca paga',0.1,1,No,No
'Persona natural',35.38,0,18.99,1,'Nunca paga',0.1,1,No,No
'Persona natural',35.37,18.85,0,0,'Con retraso',0,1,Si,No
'Persona natural',35.37,0,18.99,1,'Nunca paga',0.1,1,No,No
'Persona natural',35.36,18.84,0,0,'Con retraso',0,1,Si,No
'Persona natural',35.36,0,18.98,1,'Nunca paga',0.1,1,No,No
'Persona natural',35.36,0,18.98,1,'Nunca paga',0,0,No,No
'Persona natural',35.34,0,18.98,1,'Nunca paga',0.1,1,No,No
'Persona natural',35.32,0,18.97,1,'Nunca paga',0.1,1,No,No
'Persona natural',35.31,0,18.97,1,'Nunca paga',0.1,1,No,No
'Persona natural',35.31,0,18.97,1,'Nunca paga',0,1,No,No
'Persona natural',35.3,0,18.97,1,'Nunca paga',0,1,No,No
'Persona natural',35.29,0,18.97,1,'Nunca paga',0,1,No,No
'Persona natural',35.29,18.83,0,0,'Con retraso',0,1,Si,No
'Persona natural',35.29,8.83,0,0,'Con retraso',0,0,Si,No
'Persona natural',35.27,0,18.96,1,'Nunca paga',0.1,1,No,No
'Persona natural',35.27,0,18.96,1,'Nunca paga',0,1,No,No
'Persona natural',35.26,0,18.96,1,'Nunca paga',0.1,1,No,No
'Persona natural',35.22,0,18.95,1,'Nunca paga',0,1,No,No
'Persona natural',35.22,0,18.95,1,'Nunca paga',0.1,1,No,No
'Persona natural',35.21,0,0,0,'Nunca paga',0.1,0,No,No
'Persona natural',35.21,0,18.95,1,'Nunca paga',0,1,No,No
'Persona natural',35.2,0,18.94,1,'Nunca paga',0.1,1,No,No
'Persona natural',35.19,0,18.94,1,'Nunca paga',0.1,1,No,No
'Persona natural',35.16,0,18.93,1,'Nunca paga',0.1,1,No,No
'Persona natural',35.15,0,18.93,1,'Nunca paga',0,1,No,No
'Persona natural',35.14,0,18.93,1,'Nunca paga',0.1,1,No,No
'Persona natural',35.13,0,18.93,1,'Nunca paga',0.1,1,No,No
'Persona natural',35.11,0,18.92,1,'Nunca paga',0.1,1,No,No
'Persona natural',35.1,0,18.92,1,'Nunca paga',0,1,No,No
'Persona natural',35.08,0,18.91,1,'Nunca paga',0.1,1,No,No
'Persona natural',35.06,0,18.91,1,'Nunca paga',0.1,1,No,No
'Persona natural',35.05,0,18.91,1,'Nunca paga',0.1,1,No,No
'Persona natural',35.04,0,18.9,1,'Nunca paga',0,0,No,No
'Persona natural',35.03,0,18.9,1,'Nunca paga',0.1,1,No,No
'Persona natural',35.02,0,18.9,1,'Nunca paga',0.1,1,No,No
'Persona natural',35.01,0,18.9,1,'Nunca paga',0.1,1,No,No
'Persona natural',34.99,0,0,0,'Nunca paga',0,0,No,No
'Persona natural',34.98,0,18.89,1,'Nunca paga',0,1,No,No
'Persona natural',34.97,0,18.89,1,'Nunca paga',0.1,1,No,No
'Persona natural',34.97,0,18.89,1,'Nunca paga',0,1,No,No
'Persona natural',34.96,0,18.88,1,'Nunca paga',0.1,1,No,No
'Persona natural',34.95,0,18.88,1,'Nunca paga',0,1,No,No
'Persona natural',34.95,0,18.88,1,'Nunca paga',0.1,1,No,No
'Persona natural',34.94,0,18.88,1,'Nunca paga',0.1,1,No,No
'Persona natural',34.92,0,18.87,1,'Nunca paga',0,1,No,No
'Persona natural',34.92,0,18.87,1,'Nunca paga',0.1,1,No,No
'Persona natural',34.9,0,18.87,1,'Nunca paga',0.1,1,No,No
'Persona natural',34.89,0,18.87,1,'Nunca paga',0,0,No,No
'Persona natural',34.84,0,18.85,1,'Nunca paga',0,1,No,No
'Persona natural',34.82,0,18.85,1,'Nunca paga',0.1,1,No,No
'Persona natural',34.8,0,18.84,1,'Nunca paga',0.1,1,No,No
'Persona natural',34.79,0,18.84,1,'Nunca paga',0.1,1,No,No
'Persona natural',34.78,0,18.84,1,'Nunca paga',0.1,1,No,No
'Persona natural',34.77,0,18.84,1,'Nunca paga',0,1,No,No
'Persona natural',34.75,0,18.83,1,'Nunca paga',0.1,1,No,No
'Persona natural',34.74,0,0,0,'Nunca paga',0,0,No,No
'Persona natural',34.71,0,18.82,1,'Nunca paga',0.1,1,No,No
'Persona natural',34.7,18.68,0,0,'Con retraso',0,1,Si,No
'Persona natural',34.68,0,0,0,'Nunca paga',0,0,No,No
'Persona natural',34.68,0,18.81,1,'Nunca paga',0.1,1,No,No
'Persona natural',34.66,0,18.81,1,'Nunca paga',0,1,No,No
'Persona natural',34.65,0,18.81,1,'Nunca paga',0.1,1,No,No
'Persona natural',34.63,0,18.8,1,'Nunca paga',0,0,No,No
'Persona natural',34.63,0,18.8,1,'Nunca paga',0,1,No,No
'Persona natural',34.62,0,18.8,1,'Nunca paga',0.1,1,No,No
'Persona natural',34.6,0,18.79,1,'Nunca paga',0.1,1,No,No
'Persona natural',34.58,0,18.79,1,'Nunca paga',0.1,1,No,No
'Persona natural',34.57,0,18.79,1,'Nunca paga',0.1,1,No,No
'Persona natural',34.54,0,18.78,1,'Nunca paga',0.1,1,No,No
'Persona natural',34.52,18.63,0,0,'Con retraso',0,1,Si,No
'Persona natural',34.52,0,18.77,1,'Nunca paga',0,1,No,No
'Persona natural',34.51,18.63,0,0,'Con retraso',0,1,Si,No
'Persona natural',34.49,0,18.77,1,'Nunca paga',0.1,1,No,No
'Persona natural',34.45,18.62,0,0,'Con retraso',0,1,Si,No
'Persona natural',34.43,18.61,0,0,'Con retraso',0,1,Si,No
'Persona natural',34.43,0,18.75,1,'Nunca paga',0,1,No,No
'Persona natural',34.41,0,18.75,1,'Nunca paga',0,1,No,No
'Persona natural',34.41,0,18.75,1,'Nunca paga',0.1,1,No,No
'Persona natural',34.4,18.6,0,0,'Con retraso',0,1,Si,No
'Persona natural',34.38,0,18.74,1,'Nunca paga',0.1,1,No,No
'Persona natural',34.36,0,18.73,1,'Nunca paga',0.1,1,No,No
'Persona natural',34.35,0,18.73,1,'Nunca paga',0,1,No,No
'Persona natural',34.29,0,18.72,1,'Nunca paga',0,1,No,No
'Persona natural',34.28,0,18.71,1,'Nunca paga',0,1,No,No
'Persona natural',34.28,8.57,0,0,'Con retraso',0,0,Si,No
'Persona natural',34.26,0,18.71,1,'Nunca paga',0.1,1,No,No
'Persona natural',34.24,0,18.7,1,'Nunca paga',0.1,1,No,No
'Persona natural',34.24,0,18.7,1,'Nunca paga',0,1,No,No
'Persona natural',34.23,0,18.7,1,'Nunca paga',0.1,1,No,No
'Persona natural',34.2,0,18.69,1,'Nunca paga',0.1,1,No,No
'Persona natural',34.18,0,18.69,1,'Nunca paga',0,1,No,No
'Persona natural',34.18,0,18.69,1,'Nunca paga',0.1,1,No,No
'Persona natural',34.17,0,18.69,1,'Nunca paga',0.1,1,No,No
'Persona natural',34.15,0,18.68,1,'Nunca paga',0,1,No,No
'Persona natural',34.14,0,18.68,1,'Nunca paga',0,1,No,No
'Persona natural',34.1,0,18.67,1,'Nunca paga',0.1,1,No,No
'Persona natural',34.07,0,18.66,1,'Nunca paga',0,1,No,No
'Persona natural',34.07,0,18.66,1,'Nunca paga',0.1,1,No,No
'Persona natural',34.06,0,18.66,1,'Nunca paga',0.1,1,No,No
'Persona natural',34.05,0,18.66,1,'Nunca paga',0.1,1,No,No
'Persona natural',34.05,8.52,0,0,'Con retraso',0,0,Si,No
'Persona natural',34.05,18.52,0,0,'Con retraso',0,1,Si,No
'Persona natural',34.02,0,18.65,1,'Nunca paga',0.1,1,No,No
'Persona natural',34.01,0,18.65,1,'Nunca paga',0.1,1,No,No
'Persona natural',33.99,0,18.64,1,'Nunca paga',0.1,1,No,No
'Persona natural',33.95,0,18.62,1,'Nunca paga',0.1,1,No,No
'Persona natural',33.94,0,18.62,1,'Nunca paga',0,1,No,No
'Persona natural',33.92,0,18.61,1,'Nunca paga',0.1,1,No,No
'Persona natural',33.91,0,18.61,1,'Nunca paga',0.1,1,No,No
'Persona natural',33.91,0,18.61,1,'Nunca paga',0,1,No,No
'Persona natural',33.89,0,0,0,'Nunca paga',0,0,No,No
'Persona natural',33.89,0,18.61,1,'Nunca paga',0,1,No,No
'Persona natural',33.88,0,18.6,1,'Nunca paga',0.1,1,No,No
'Persona natural',33.87,0,18.6,1,'Nunca paga',0.1,1,No,No
'Persona natural',33.87,18.47,0,0,'Con retraso',0,1,Si,No
'Persona natural',33.86,0,18.6,1,'Nunca paga',0.1,1,No,No
'Persona natural',33.86,0,0,0,'Nunca paga',0,0,No,No
'Persona natural',33.85,0,18.6,1,'Nunca paga',0,1,No,No
'Persona juridica',33.85,0,18.6,1,'Nunca paga',0,0,No,No
'Persona natural',33.83,0,18.59,1,'Nunca paga',0,1,No,No
'Persona natural',33.83,0,18.59,1,'Nunca paga',0.1,1,No,No
'Persona natural',33.8,0,18.58,1,'Nunca paga',0,1,No,No
'Persona natural',33.79,0,18.58,1,'Nunca paga',0,1,No,No
'Persona natural',33.79,18.45,0,0,'Con retraso',0,1,Si,No
'Persona natural',33.78,0,18.58,1,'Nunca paga',0,1,No,No
'Persona natural',33.76,0,18.57,1,'Nunca paga',0.1,1,No,No
'Persona natural',33.75,0,18.57,1,'Nunca paga',0,1,No,No
'Persona natural',33.74,0,0,0,'Nunca paga',0,0,No,No
'Persona natural',33.74,0,18.57,1,'Nunca paga',0.1,1,No,No
'Persona natural',33.68,18.42,0,0,'Con retraso',0,1,Si,No
'Persona natural',33.68,0,18.55,1,'Nunca paga',0,1,No,No
'Persona natural',33.67,0,18.55,1,'Nunca paga',0.1,1,No,No
'Persona natural',33.63,0,18.54,1,'Nunca paga',0.1,1,No,No
'Persona natural',33.62,0,18.54,1,'Nunca paga',0.1,1,No,No
'Persona natural',33.61,0,18.54,1,'Nunca paga',0.1,1,No,No
'Persona natural',33.6,0,18.53,1,'Nunca paga',0.1,1,No,No
'Persona natural',33.59,0,18.53,1,'Nunca paga',0.1,1,No,No
'Persona natural',33.59,0,18.53,1,'Nunca paga',0,1,No,No
'Persona natural',33.57,0,18.53,1,'Nunca paga',0,1,No,No
'Persona natural',33.55,0,18.52,1,'Nunca paga',0.1,1,No,No
'Persona natural',33.54,0,18.52,1,'Nunca paga',0.1,1,No,No
'Persona natural',33.54,0,18.52,1,'Nunca paga',0,1,No,No
'Persona natural',33.53,0,18.52,1,'Nunca paga',0,1,No,No
'Persona natural',33.53,0,18.52,1,'Nunca paga',0.1,1,No,No
'Persona natural',33.52,0,18.51,1,'Nunca paga',0.1,1,No,No
'Persona natural',33.52,0,18.51,1,'Nunca paga',0,1,No,No
'Persona natural',33.51,0,18.51,1,'Nunca paga',0.1,1,No,No
'Persona natural',33.51,0,18.51,1,'Nunca paga',0,1,No,No
'Persona natural',33.5,0,18.51,1,'Nunca paga',0.1,1,No,No
'Persona natural',33.48,0,18.5,1,'Nunca paga',0.1,1,No,No
'Persona natural',33.46,0,18.5,1,'Nunca paga',0.1,1,No,No
'Persona natural',33.46,0,18.5,1,'Nunca paga',0,0,No,No
'Persona natural',33.45,0,18.5,1,'Nunca paga',0.1,1,No,No
'Persona natural',33.45,18.37,0,0,'Con retraso',0,1,Si,No
'Persona natural',33.41,0,18.49,1,'Nunca paga',0.1,1,No,No
'Persona natural',33.4,0,18.48,1,'Nunca paga',0.1,1,No,No
'Persona natural',33.38,0,18.48,1,'Nunca paga',0,1,No,No
'Persona natural',33.37,0,18.48,1,'Nunca paga',0.1,1,No,No
'Persona natural',33.36,0,18.47,1,'Nunca paga',0,1,No,No
'Persona natural',33.34,0,18.47,1,'Nunca paga',0,1,No,No
'Persona natural',33.31,0,18.46,1,'Nunca paga',0.1,1,No,No
'Persona natural',33.3,0,18.46,1,'Nunca paga',0,1,No,No
'Persona natural',33.29,0,18.46,1,'Nunca paga',0,1,No,No
'Persona natural',33.27,0,18.45,1,'Nunca paga',0,1,No,No
'Persona natural',33.25,0,18.45,1,'Nunca paga',0.1,1,No,No
'Persona natural',33.25,0,18.45,1,'Nunca paga',0,1,No,No
'Persona natural',33.24,0,18.44,1,'Nunca paga',0.1,1,No,No
'Persona natural',33.22,0,18.44,1,'Nunca paga',0.1,1,No,No
'Persona natural',33.2,0,18.43,1,'Nunca paga',0,1,No,No
'Persona natural',33.2,18.39,0,0,'Con retraso',0,1,Si,No
'Persona natural',33.19,0,18.43,1,'Nunca paga',0,1,No,No
'Persona natural',33.16,0,18.42,1,'Nunca paga',0.1,1,No,No
'Persona natural',33.16,0,18.42,1,'Nunca paga',0,1,No,No
'Persona natural',33.13,0,18.42,1,'Nunca paga',0.1,1,No,No
'Persona natural',33.12,0,18.41,1,'Nunca paga',0.1,1,No,No
'Persona natural',33.11,0,18.41,1,'Nunca paga',0,1,No,No
'Persona natural',33.11,0,18.41,1,'Nunca paga',0.1,1,No,No
'Persona natural',33.09,0,18.41,1,'Nunca paga',0,1,No,No
'Persona natural',33.08,0,18.4,1,'Nunca paga',0,1,No,No
'Persona natural',33.07,8.27,0,0,'Con retraso',0,0,Si,No
'Persona natural',33.06,0,18.4,1,'Nunca paga',0.1,1,No,No
'Persona natural',33.05,0,18.4,1,'Nunca paga',0,1,No,No
'Persona natural',33.04,0,18.39,1,'Nunca paga',0.1,1,No,No
'Persona natural',33.04,0,18.39,1,'Nunca paga',0,1,No,No
'Persona natural',33.04,18.35,0,0,'Con retraso',0,1,Si,No
'Persona natural',33.01,0,18.39,1,'Nunca paga',0,1,No,No
'Persona natural',33,0,18.38,1,'Nunca paga',0.1,1,No,No
'Persona natural',33,0,18.38,1,'Nunca paga',0,1,No,No
'Persona natural',33,0,0,0,'Nunca paga',0,0,No,No
'Persona juridica',33,0,18.38,1,'Nunca paga',0,0,No,No
'Persona natural',33,8.25,0,0,'Con retraso',0,0,Si,No
'Persona natural',33,0,0,0,'Nunca paga',0.1,0,No,No
'Persona natural',33,18.34,0,0,'Con retraso',0,1,Si,No
'Persona natural',33,18.25,0,0,'Con retraso',0,1,Si,No
'Persona natural',33,0,18.38,1,'Nunca paga',0,0,No,No
'Persona natural',33,18.35,0,0,'Con retraso',0,1,Si,No
'Persona natural',33,18.33,0,0,'Con retraso',0,1,Si,No
'Persona juridica',33,18.25,0,0,'Con retraso',0,0,Si,No
'Persona natural',33,19.98,0,0,'Con retraso',0,1,Si,No
'Persona natural',33,18.25,0,0,'Con retraso',0,0,Si,No
'Persona natural',33,8.25,0,0,'Con retraso',0,1,Si,No
'Persona natural',33,8.35,0,0,'Con retraso',0,0,Si,No
'Persona natural',33,0,8.38,1,'Nunca paga',0,0,No,No
'Persona natural',33,0,8.38,1,'Nunca paga',0.1,0,No,No
'Persona juridica',33,0,8.38,1,'Nunca paga',0,0,No,No
'Persona natural',33,8.34,0,0,'Con retraso',0,0,Si,No
'Persona natural',33,8.33,0,0,'Con retraso',0,0,Si,No
'Persona natural',33,18.38,0,0,'Con retraso',0,1,Si,No
'Persona natural',33,0,8.38,1,'Nunca paga',0,1,No,No
'Persona juridica',33,0,0,0,'Nunca paga',0,0,No,No
'Persona natural',33,19.1,0,0,'Con retraso',0,1,Si,No
